#
SystemName          Molybdenum disulfide
SystemLabel         MoS2
NumberOfAtoms       76
NumberOfSpecies     3

%block ChemicalSpeciesLabel
 1  42  Mo    # Species index, atomic number, species label
 2  16  S     # Species index, atomic number, species label 
 3  55  Cs    # Species index, atomic number, species label
%endblock ChemicalSpeciesLabel

PAO.BasisSize DZP
%block kgrid_Monkhorst_Pack
  5    0   0  0.000
  0    5   0  0.000
  0    0   1  0.000
%endblock kgrid_Monkhorst_Pack

MeshCutoff		250 Ry
DM.MixingWeight         0.06
MaxSCFIterations	500

XC.functional  LDA
XC.authors   CA

DM.Tolerance 1.0E-4
DM.UseSaveDM T
DM.NumberPulay 3

SpinPolarized F
SolutionMethod =  diagon

#MD.MaxCGDispl 0.10 Bohr
#MD.NumCGsteps 200
#MD.MaxForceTol  0.02 eV/Ang
#MD.UseSaveXV F
#MD.UseSaveCG F

# MD options
MD.TypeOfRun            neb         # Type of dynamics:
MD.NumNEBsteps          1000           # Maximum Number of NEB steps
MD.NumOfImages          16           # Number of Images
MD.Kspring              0.02        # Spring force; default works well
MD.IndexOfNEB           7000           # n>0 => CI-NEB from nth step
                                    # n>NumNEBsteps => IT-NEB
                                    # n=-1 => bisection-NEB
NEB.UseBroyden          .true.      # .true. oprimizes whole elastic band
NEB.SkipEdge            .false.      # Skip calculations of initial and 
                                    #  final states if UseSaveNEB = .ture.
MD.MaxForceTol          0.06 eV/Ang # Tolerance of force for each images
MD.Broyden.Cycle.On.Maxit  .true.   # We recommend .true. for global hessian, 
                                    # .false. for individual hessian
#MD.VariableCell         .true.     ! under construction !
MD.UseSaveNEB           .true.      # You can start from arbitary continuations

#%block GeometryConstraints
#position 2
#%endblock GeometryConstraints

ParallelOverK   F
WriteForces F
WriteCoorStep F

LatticeConstant    3.132  Ang
%block LatticeVectors
  2.500 -4.330  0.000
  2.500  4.330  0.000
  0.000  0.000  6.000
%endblock LatticeVectors

AtomicCoordinatesFormat  Ang
%block AtomicCoordinatesAndAtomicSpecies
   -0.00051554    0.02856817   -0.00065674   1  Mo         1
   -0.00263915    1.83346956    1.60014718   2  S          2
   -0.00004402    1.83793795   -1.59439500   2  S          3
    1.56471330   -2.68864420   -0.00191140   1  Mo         4
    1.55951715   -0.88060761    1.59246469   2  S          5
    1.56125121   -0.87977454   -1.59710365   2  S          6
    3.13228041   -5.40240115   -0.00120342   1  Mo         7
    3.12731144   -3.59707399    1.59165067   2  S          8
    3.12885369   -3.59622134   -1.59745198   2  S          9
    4.70116510   -8.11402929    0.00088977   1  Mo        10
    4.69450338   -6.30909521    1.59658688   2  S         11
    4.69750388   -6.30924110   -1.59509116   2  S         12
    6.26685115  -10.82052230    0.00300182   1  Mo        13
    6.26385241   -9.01626815    1.60178095   2  S         14
    6.26468384   -9.01673784   -1.59757811   2  S         15
    1.56328748    2.73837896    0.00674954   1  Mo        16
    1.56448066    4.54730855    1.59992168   2  S         17
    1.56178485    4.54248094   -1.59425562   2  S         18
    3.12432385    0.02846034   -0.00314093   1  Mo        19
    3.13299113    1.83248931    1.60107958   2  S         20
    3.12541461    1.83682753   -1.59665714   2  S         21
    4.69506496   -2.69565585   -0.00368860   1  Mo        22
    4.67630811   -0.89072330    1.58610909   2  S         23
    4.69747080   -0.87848513   -1.59620979   2  S         24
    6.26177126   -5.40786955    0.00246367   1  Mo        25
    6.26272885   -3.59480099    1.59722733   2  S         26
    6.26323906   -3.60034763   -1.59590903   2  S         27
    7.82808155   -8.11700314    0.00302376   1  Mo        28
    7.83017749   -6.31039210    1.59620636   2  S         29
    7.82811585   -6.31187345   -1.59326692   2  S         30
    3.12850283    5.44821827   -0.00066408   1  Mo        31
    3.13573422    7.25525368    1.59441319   2  S         32
    3.13522656    7.25517703   -1.59600814   2  S         33
    4.69126757    2.74201896   -0.00332961   1  Mo        34
    4.69581821    4.55180625    1.59235812   2  S         35
    4.69614874    4.54987165   -1.59709135   2  S         36
    6.26353414    0.02528026    0.00433162   1  Mo        37
    6.26312331    1.85767095    1.58593897   2  S         38
    6.26319011    1.83324921   -1.59615907   2  S         39
    7.82842309   -2.69326372   -0.00230246   1  Mo        40
    7.84811118   -0.88968011    1.58682568   2  S         41
    7.82854970   -0.87830818   -1.59615064   2  S         42
    9.39754295   -5.40848444   -0.00058120   1  Mo        43
    9.40004390   -3.59919246    1.58974365   2  S         44
    9.39858775   -3.59841100   -1.59336103   2  S         45
    4.70034037    8.16181668   -0.00130917   1  Mo        46
    4.70179045    9.96778025    1.59562108   2  S         47
    4.70249861    9.96749633   -1.59747318   2  S         48
    6.26428867    5.45100619   -0.00184642   1  Mo        49
    6.26416561    7.25749822    1.59324246   2  S         50
    6.26417065    7.25858125   -1.59645253   2  S         51
    7.83580232    2.74388662   -0.00360922   1  Mo        52
    7.83225528    4.55235642    1.59198834   2  S         53
    7.83236927    4.55044168   -1.59744412   2  S         54
    9.40028580    0.02890945   -0.00248883   1  Mo        55
    9.39803643    1.83600891    1.59715093   2  S         56
    9.40328636    1.83818518   -1.59572707   2  S         57
   10.96799445   -2.69121136   -0.00146101   1  Mo        58
   10.97070591   -0.87888873    1.58950317   2  S         59
   10.96910563   -0.87813365   -1.59322004   2  S         60
    6.26513022   10.87218927   -0.00133694   1  Mo        61
    6.26815551   12.68054740    1.59442850   2  S         62
    6.26786833   12.68094365   -1.59602257   2  S         63
    7.82813149    8.16275430   -0.00153121   1  Mo        64
    7.83026867    9.97011679    1.59322012   2  S         65
    7.82920795    9.96932489   -1.59647538   2  S         66
    9.39812543    5.45028932   -0.00103812   1  Mo        67
    9.39525740    7.25824470    1.59207947   2  S         68
    9.39535281    7.25797007   -1.59436186   2  S         69
   10.96801859    2.74335157    0.00240372   1  Mo        70
   10.96475911    4.55108477    1.59663237   2  S         71
   10.96616639    4.54849801   -1.59500230   2  S         72
   12.53642565    0.02800608   -0.00083031   1  Mo        73
   12.53367938    1.83620271    1.59643411   2  S         74
   12.53395330    1.83890980   -1.59333262   2  S         75
    6.26310043    0.02549969    4.21819774   3  Cs        76
%endblock AtomicCoordinatesAndAtomicSpecies

%block FinalAtomicCoordinatesAndAtomicSpecies
   -0.00005971    0.02605256    0.00019170   1  Mo         1
   -0.00249412    1.83255844    1.59779165   2  S          2
   -0.00125791    1.83537718   -1.59447723   2  S          3
    1.56639246   -2.69045252   -0.00157096   1  Mo         4
    1.56148276   -0.88447193    1.59341717   2  S          5
    1.56165894   -0.88166193   -1.59655818   2  S          6
    3.13313613   -5.40127460   -0.00076379   1  Mo         7
    3.12848364   -3.59701592    1.59543538   2  S          8
    3.13141070   -3.59542728   -1.59598539   2  S          9
    4.69915190   -8.11012399    0.00174468   1  Mo        10
    4.69452714   -6.30535149    1.59781126   2  S         11
    4.69559721   -6.30736488   -1.59741867   2  S         12
    6.26531267  -10.82144522    0.00429837   1  Mo        13
    6.26102772   -9.01444715    1.60147156   2  S         14
    6.26594274   -9.01407330   -1.59249563   2  S         15
    1.56121398    2.74242628   -0.00050377   1  Mo        16
    1.56941340    4.54422561    1.60538271   2  S         17
    1.56165783    4.54580740   -1.59786173   2  S         18
    3.12744796    0.02086097   -0.00269990   1  Mo        19
    3.11176943    1.82304939    1.59006908   2  S         20
    3.13240968    1.83656841   -1.59554119   2  S         21
    4.69370577   -2.69287147    0.00190885   1  Mo        22
    4.69437312   -0.87862977    1.59770595   2  S         23
    4.69367106   -0.88320670   -1.59625466   2  S         24
    6.25988809   -5.40747342    0.00039639   1  Mo        25
    6.26254529   -3.59958560    1.59298927   2  S         26
    6.26077235   -3.59832429   -1.59178656   2  S         27
    7.82977719   -8.11433480    0.00816853   1  Mo        28
    7.82773122   -6.30440107    1.59830801   2  S         29
    7.82750504   -6.31244846   -1.59243202   2  S         30
    3.12650473    5.44823267   -0.00305536   1  Mo        31
    3.13294538    7.25796446    1.59326079   2  S         32
    3.13321948    7.25587312   -1.59652827   2  S         33
    4.69459703    2.74290277    0.00784931   1  Mo        34
    4.69630856    4.57126042    1.59034089   2  S         35
    4.69690794    4.54534767   -1.59796097   2  S         36
    6.26075309    0.02137246   -0.00233528   1  Mo        37
    6.28131921    1.82507569    1.58854399   2  S         38
    6.25890040    1.83904738   -1.59261215   2  S         39
    7.82945870   -2.69155682   -0.00030328   1  Mo        40
    7.83155439   -0.88297000    1.59190405   2  S         41
    7.83102260   -0.88141263   -1.59441615   2  S         42
    9.39582926   -5.40633519   -0.00014505   1  Mo        43
    9.39906662   -3.59568194    1.59127007   2  S         44
    9.39806692   -3.59683638   -1.59241494   2  S         45
    4.69855539    8.16184168   -0.00112576   1  Mo        46
    4.70135767    9.96876262    1.59496498   2  S         47
    4.70121567    9.96839779   -1.59725511   2  S         48
    6.26826794    5.44954358   -0.00369936   1  Mo        49
    6.26615530    7.26010249    1.58992349   2  S         50
    6.26555363    7.25855251   -1.59468062   2  S         51
    7.83363316    2.74686669   -0.00211424   1  Mo        52
    7.82868910    4.54888494    1.60071852   2  S         53
    7.83405282    4.55132337   -1.59956818   2  S         54
    9.39856577    0.02510831   -0.00017721   1  Mo        55
    9.40335717    1.83734947    1.59070631   2  S         56
    9.40190397    1.83725465   -1.59245260   2  S         57
   10.96859033   -2.68929685   -0.00095155   1  Mo        58
   10.96746082   -0.87925613    1.59286113   2  S         59
   10.96769682   -0.87857224   -1.59433676   2  S         60
    6.26372668   10.87439077   -0.00129683   1  Mo        61
    6.26727750   12.68023691    1.59614294   2  S         62
    6.26775446   12.68151319   -1.59730249   2  S         63
    7.83363300    8.16155000   -0.00116414   1  Mo        64
    7.82984077    9.97038307    1.59116614   2  S         65
    7.83000619    9.96930051   -1.59458087   2  S         66
    9.39674224    5.45105435    0.00207523   1  Mo        67
    9.39922850    7.25971210    1.59424807   2  S         68
    9.39894691    7.25578829   -1.59445594   2  S         69
   10.96823586    2.74420748    0.00027948   1  Mo        70
   10.96453052    4.55135633    1.59691700   2  S         71
   10.96381358    4.55200275   -1.59470340   2  S         72
   12.53494022    0.02463680   -0.00023326   1  Mo        73
   12.53035714    1.83319041    1.59639867   2  S         74
   12.53405047    1.83681333   -1.59309962   2  S         75
    4.69239383    2.74271879    4.22617564   3  Cs        76
%endblock FinalAtomicCoordinatesAndAtomicSpecies

