SystemName  C3 molecule
SystemLabel AuC3Au

#********************************************************
# Specification of atomic species and positions
#********************************************************

# Chemical species
NumberOfSpecies 2
%block ChemicalSpeciesLabel
 1 79 Au
 2  6 C
%endblock ChemicalSpeciesLabel

# UNIT CELL
LatticeConstant       1.0 Ang
%block LatticeVectors
   4.3289600000 -7.4979700000  0.0000000000
   4.3289600000  7.4979700000  0.0000000000
   0.0000000000  0.0000000000  25.1655400000
%endblock LatticeVectors

# ATOMIC POSITIONS
NumberOfAtoms    75
AtomicCoordinatesFormat Ang
%block AtomicCoordinatesAndAtomicSpecies 
   1.4429860000  0.8331080000  0.0000000000 1
   2.8859710000 -1.6662140000  0.0000000000 1
   4.3289560000 -4.1655360000  0.0000000000 1
   2.8859710000  3.3324300000  0.0000000000 1
   4.3289560000  0.8331080000  0.0000000000 1
   5.7719410000 -1.6662140000  0.0000000000 1
   4.3289560000  5.8317520000  0.0000000000 1
   5.7719410000  3.3324300000  0.0000000000 1
   7.2149260000  0.8331080000  0.0000000000 1
   1.4429860000 -0.8331080000  2.3563860000 1
   2.8859710000 -3.3324300000  2.3563860000 1
   4.3289560000 -5.8317520000  2.3563860000 1
   2.8859710000  1.6662140000  2.3563860000 1
   4.3289560000 -0.8331080000  2.3563860000 1
   5.7719410000 -3.3324300000  2.3563860000 1
   4.3289560000  4.1655360000  2.3563860000 1
   5.7719410000  1.6662140000  2.3563860000 1
   7.2149260000 -0.8331080000  2.3563860000 1
   1.4429860000  0.8331080000  4.7127720000 1
   2.8859710000 -1.6662140000  4.7127720000 1
   4.3289560000 -4.1655360000  4.7127720000 1
   2.8859710000  3.3324300000  4.7127720000 1
   4.3289560000  0.8331080000  4.7127720000 1
   5.7719410000 -1.6662140000  4.7127720000 1
   4.3289560000  5.8317520000  4.7127720000 1
   5.7719410000  3.3324300000  4.7127720000 1
   7.2149260000  0.8331080000  4.7127720000 1
   1.4429860000 -0.8331080000  7.0691580000 1
   2.8859710000 -3.3324300000  7.0691580000 1
   4.3289560000 -5.8317520000  7.0691580000 1
   2.8859710000  1.6662140000  7.0691580000 1
   4.3289560000 -0.8331080000  7.0691580000 1
   5.7719410000 -3.3324300000  7.0691580000 1
   4.3289560000  4.1655360000  7.0691580000 1
   5.7719410000  1.6662140000  7.0691580000 1
   7.2149260000 -0.8331080000  7.0691580000 1
   4.3289560000  0.8331080000  11.1000000000 2
   4.3289560000  0.8331080000  12.4100000000 2
   4.3289560000  0.8331080000  13.7200000000 2
   1.4429860000 -0.8331080000  15.7400000000 1
   2.8859710000 -3.3324300000  15.7400000000 1
   4.3289560000 -5.8317520000  15.7400000000 1
   2.8859710000  1.6662140000  15.7400000000 1
   4.3289560000 -0.8331080000  15.7400000000 1
   5.7719410000 -3.3324300000  15.7400000000 1
   4.3289560000  4.1655360000  15.7400000000 1
   5.7719410000  1.6662140000  15.7400000000 1
   7.2149260000 -0.8331080000  15.7400000000 1
   0.0000000000  0.0000000000  18.0963870000 1
   1.4429850000 -2.4993220000  18.0963870000 1
   2.8859700000 -4.9986440000  18.0963870000 1
   1.4429850000  2.4993220000  18.0963870000 1
   2.8859700000  0.0000000000  18.0963870000 1
   4.3289550000 -2.4993220000  18.0963870000 1
   2.8859700000  4.9986440000  18.0963870000 1
   4.3289550000  2.4993220000  18.0963870000 1
   5.7719400000  0.0000000000  18.0963870000 1
   1.4429860000  0.8331080000  20.4527680000 1
   2.8859710000 -1.6662140000  20.4527680000 1
   4.3289560000 -4.1655360000  20.4527680000 1
   2.8859710000  3.3324300000  20.4527680000 1
   4.3289560000  0.8331080000  20.4527680000 1
   5.7719410000 -1.6662140000  20.4527680000 1
   4.3289560000  5.8317520000  20.4527680000 1
   5.7719410000  3.3324300000  20.4527680000 1
   7.2149260000  0.8331080000  20.4527680000 1
   1.4429860000 -0.8331080000  22.8091540000 1
   2.8859710000 -3.3324300000  22.8091540000 1
   4.3289560000 -5.8317520000  22.8091540000 1
   2.8859710000  1.6662140000  22.8091540000 1
   4.3289560000 -0.8331080000  22.8091540000 1
   5.7719410000 -3.3324300000  22.8091540000 1
   4.3289560000  4.1655360000  22.8091540000 1
   5.7719410000  1.6662140000  22.8091540000 1
   7.2149260000 -0.8331080000  22.8091540000 1
%endblock AtomicCoordinatesAndAtomicSpecies 


#********************************************************
# DFT options
#********************************************************

# Basis set variables
PAO.BasisType split

%block PAO.Basis                
  Au  1
n=6  0  1  P 0 E 20 4
  5.5
%endblock PAO.Basis

%block PS.lmax
 Au   1
%endblock PS.lmax

# k-mesh for Brillouin zone integration
%block kgrid_Monkhorst_Pack
  2   0   0     0.0 
  0   2   0     0.0
  0   0   1     0.0
%endblock kgrid_Monkhorst_Pack


# General variables
ElectronicTemperature  300 K 
MeshCutoff             200. Ry
xc.functional          LDA           # Exchange-correlation functional
xc.authors             CA 
SpinPolarized          F

# SCF variables

DM.MixSCF1            T
MaxSCFIterations      1000           # Maximum number of SCF iter
DM.MixingWeight       0.03           # New DM amount for next SCF cycle
DM.Tolerance          2.0d-4         # Tolerance in maximum difference
DM.UseSaveDM          true           # to use continuation files
DM.NumberPulay        5

# Output variables

WriteMullikenPop                0
WriteBands                      F
SaveRho                         T
SaveElectrostaticPotential      T
SaveTotalPotential              F
WriteCoorXmol                   T
WriteMDXmol                     T

#********************************************************
# SMEAGOL options
#********************************************************

# perform a transport calculation
EMTransport               T

# set number of energy points for integrals
NEnergReal               128
NEnergImCircle           16
NEnergImLine             16
NPoles                   16

#set bias range
VInitial                -1.00d0 eV
VFinal                   1.00d0 eV
NIVPoints                8

# General variables
Delta                    1.d-4
EnergLowestBound        -5.0d0 Ry
NSlices                  1
PeriodicTransp           T
InitTransport            T
SaveMemTranspK           F
WriteDMT                 F

# Matching of Hartree potential with the leads
HartreeLeadsBottom     -19.94020653     eV
HartreeLeadsLeft         0.00          Ang
HartreeLeadsRight       25.1655400000  Ang

# print transmission coefficient
TrCoefficients           T
NTransmPoints            400
TransmissionOverK        F
TRCScaleEF               T
InitTransmRange         -4.0  eV 
FinalTransmRange         4.0  eV
TransmissionEmbed        F
TRC.EMDOS                T
TRC.EMPDOS               T
TRC.LeadsDOS             T
TRC.LeadsPDOS            F
Sigma.PDOS               F
Sigma.DOSVV              F

# save output for specified bias steps
%block SaveBiasSteps
 0 4 8
%endblock SaveBiasSteps


#Scissor operator options start here
#==================================
Scissor.Operator    F
scissor.operator_first_atom  37
scissor.operator_last_atom   39
shift.occupied.levels   0.0 eV
shift.virtual.levels     0.0 eV
scissor.operator_NumberOfOccupiedStates 12
#===================================


