 # Version information for this restart file 
 # current date 2022-04-29 07:41:18.424
 # current working dir /rds/general/user/jj1921/home/junction/ortho/cell_6i
 # Program compiled at                              Thu 12 Jul 13:52:12 BST 2018
 # Program compiled on                                      build-2.hpc.ic.ac.uk
 # Program compiled for                                       Linux-x86-64-intel
 # Source code revision number                                         svn:18464
 &GLOBAL
   PRINT_LEVEL  MEDIUM
   PROJECT_NAME Au_junction
   RUN_TYPE  CELL_OPT
 &END GLOBAL
 &MOTION
   &CELL_OPT
     OPTIMIZER  BFGS
     STEP_START_VAL  196
     TYPE  DIRECT_CELL_OPT
     KEEP_ANGLES  T
     KEEP_SYMMETRY  T
     CONSTRAINT  XY
   &END CELL_OPT
   &CONSTRAINT
     &FIXED_ATOMS
       COMPONENTS_TO_FIX  XYZ
       LIST  1..36
     &END FIXED_ATOMS
   &END CONSTRAINT
   &PRINT
     &TRAJECTORY  SILENT
       &EACH
         CELL_OPT  1
       &END EACH
     &END TRAJECTORY
   &END PRINT
 &END MOTION
 &FORCE_EVAL
   METHOD  QS
   STRESS_TENSOR  ANALYTICAL
   &DFT
     BASIS_SET_FILE_NAME /rds/general/user/jj1921/home/BASIS_COM_MOLOPT_GTH
     POTENTIAL_FILE_NAME /rds/general/user/jj1921/home/GTH_POTENTIALS
     WFN_RESTART_FILE_NAME Au_junction-RESTART.kp
     &SCF
       MAX_SCF  500
       EPS_SCF     9.9999999999999995E-08
       CHOLESKY  INVERSE
       SCF_GUESS  RESTART
       ADDED_MOS  20
       &DIAGONALIZATION  T
         ALGORITHM  STANDARD
       &END DIAGONALIZATION
       &SMEAR  T
         METHOD  FERMI_DIRAC
         ELECTRONIC_TEMPERATURE     3.0000000000000000E+02
       &END SMEAR
       &MIXING  T
         METHOD  BROYDEN_MIXING
         ALPHA     4.0000000000000002E-01
         BETA     5.0000000000000000E-01
         NBUFFER  8
       &END MIXING
     &END SCF
     &QS
       EPS_DEFAULT     1.0000000000000000E-14
       METHOD  GPW
     &END QS
     &MGRID
       NGRIDS  4
       CUTOFF     5.0000000000000000E+02
       REL_CUTOFF     4.0000000000000000E+01
     &END MGRID
     &XC
       DENSITY_CUTOFF     1.0000000000000000E-10
       GRADIENT_CUTOFF     1.0000000000000000E-10
       TAU_CUTOFF     1.0000000000000000E-10
       &XC_FUNCTIONAL  NO_SHORTCUT
         &PBE  T
         &END PBE
       &END XC_FUNCTIONAL
     &END XC
     &KPOINTS
       SCHEME MONKHORST-PACK 4 4 1
       FULL_GRID  T
     &END KPOINTS
   &END DFT
   &SUBSYS
     &CELL
       A     1.7811878396732904E+01    0.0000000000000000E+00    0.0000000000000000E+00
       B     0.0000000000000000E+00    1.5425539180689931E+01    0.0000000000000000E+00
       C     0.0000000000000000E+00    0.0000000000000000E+00    3.0226752151153690E+01
       PERIODIC  XYZ
       MULTIPLE_UNIT_CELL  1 1 1
       SYMMETRY  ORTHORHOMBIC
     &END CELL
     &COORD
Au    1.4843232000000006E+00    8.5697440000000014E-01    0.0000000000000000E+00
Au    4.4529696000000003E+00    8.5697440000000014E-01    0.0000000000000000E+00
Au    7.4216160000000002E+00    8.5697440000000014E-01    0.0000000000000000E+00
Au    1.0390262400000001E+01    8.5697440000000014E-01    0.0000000000000000E+00
Au    1.3358908799999998E+01    8.5697440000000014E-01    0.0000000000000000E+00
Au    1.6327555200000003E+01    8.5697440000000014E-01    0.0000000000000000E+00
Au    0.0000000000000000E+00    3.4278976000000005E+00    0.0000000000000000E+00
Au    2.9686464000000012E+00    3.4278976000000005E+00    0.0000000000000000E+00
Au    5.9372928000000025E+00    3.4278976000000005E+00    0.0000000000000000E+00
Au    8.9059392000000006E+00    3.4278976000000005E+00    0.0000000000000000E+00
Au    1.1874585600000005E+01    3.4278976000000005E+00    0.0000000000000000E+00
Au    1.4843232000000000E+01    3.4278976000000005E+00    0.0000000000000000E+00
Au    1.4843232000000006E+00    5.9988207899999999E+00    0.0000000000000000E+00
Au    4.4529696000000003E+00    5.9988207899999999E+00    0.0000000000000000E+00
Au    7.4216160000000002E+00    5.9988207899999999E+00    0.0000000000000000E+00
Au    1.0390262400000001E+01    5.9988207899999999E+00    0.0000000000000000E+00
Au    1.3358908799999998E+01    5.9988207899999999E+00    0.0000000000000000E+00
Au    1.6327555200000003E+01    5.9988207899999999E+00    0.0000000000000000E+00
Au    0.0000000000000000E+00    8.5697439900000010E+00    0.0000000000000000E+00
Au    2.9686464000000012E+00    8.5697439900000010E+00    0.0000000000000000E+00
Au    5.9372928000000025E+00    8.5697439900000010E+00    0.0000000000000000E+00
Au    8.9059392000000006E+00    8.5697439900000010E+00    0.0000000000000000E+00
Au    1.1874585600000005E+01    8.5697439900000010E+00    0.0000000000000000E+00
Au    1.4843232000000000E+01    8.5697439900000010E+00    0.0000000000000000E+00
Au    1.4843232000000006E+00    1.1140667190000000E+01    0.0000000000000000E+00
Au    4.4529696000000003E+00    1.1140667190000000E+01    0.0000000000000000E+00
Au    7.4216160000000002E+00    1.1140667190000000E+01    0.0000000000000000E+00
Au    1.0390262400000001E+01    1.1140667190000000E+01    0.0000000000000000E+00
Au    1.3358908799999998E+01    1.1140667190000000E+01    0.0000000000000000E+00
Au    1.6327555200000003E+01    1.1140667190000000E+01    0.0000000000000000E+00
Au    0.0000000000000000E+00    1.3711590380000008E+01    0.0000000000000000E+00
Au    2.9686464000000012E+00    1.3711590380000008E+01    0.0000000000000000E+00
Au    5.9372928000000025E+00    1.3711590380000008E+01    0.0000000000000000E+00
Au    8.9059392000000006E+00    1.3711590380000008E+01    0.0000000000000000E+00
Au    1.1874585600000005E+01    1.3711590380000008E+01    0.0000000000000000E+00
Au    1.4843232000000000E+01    1.3711590380000008E+01    0.0000000000000000E+00
Au    2.0945224290707691E-09    1.7015066330599262E+00    2.4135228890039451E+00
Au    2.9569325002939713E+00    1.7026269239641278E+00    2.4096418022449111E+00
Au    5.9199975417862003E+00    1.7102384378491464E+00    2.4061252210443493E+00
Au    8.9059392005404820E+00    1.7306363941694574E+00    2.4172013400395391E+00
Au    1.1891880858773623E+01    1.7102384379105298E+00    2.4061252210716981E+00
Au    1.4854945900306962E+01    1.7026269237000884E+00    2.4096418018720662E+00
Au    1.4796571848302602E+00    4.2685056457827963E+00    2.4082413062243537E+00
Au    4.4480637983727531E+00    4.2788481385047890E+00    2.4304212487788797E+00
Au    7.4072116232160683E+00    4.2851603407918581E+00    2.4182138822001731E+00
Au    1.0404666777516109E+01    4.2851603398562519E+00    2.4182138809063907E+00
Au    1.3363814601644478E+01    4.2788481385353672E+00    2.4304212491779364E+00
Au    1.6332221215101917E+01    4.2685056456758748E+00    2.4082413065175876E+00
Au    1.4506584636266892E-09    6.8426491198820214E+00    2.4087402462597831E+00
Au    2.9589900140881293E+00    6.8410329337530191E+00    2.4058190885912820E+00
Au    5.9307281969135506E+00    6.8420569555135344E+00    2.4179558787833892E+00
Au    8.9059392005279410E+00    6.8535297848363141E+00    2.4816257442341900E+00
Au    1.1881150204103653E+01    6.8420569556102810E+00    2.4179558780191508E+00
Au    1.4852888385158776E+01    6.8410329338477078E+00    2.4058190888784550E+00
Au    1.4881411640129047E+00    9.4160419383288936E+00    2.4105625299289262E+00
Au    4.4616568290569134E+00    9.4157459958109513E+00    2.4138007318145416E+00
Au    7.4280970083085887E+00    9.4378409955630733E+00    2.4191644881777172E+00
Au    1.0383781392302911E+01    9.4378409961557050E+00    2.4191644881355350E+00
Au    1.3350221571268870E+01    9.4157459960292318E+00    2.4138007316258885E+00
Au    1.6323737236260747E+01    9.4160419382488882E+00    2.4105625307912875E+00
Au    2.2441844971718842E-09    1.1983201501830512E+01    2.4102457577555239E+00
Au    2.9692228660801105E+00    1.1989469932016211E+01    2.4100870330332560E+00
Au    5.9350451028441107E+00    1.2009416241184276E+01    2.4059274418025107E+00
Au    8.9059392005414857E+00    1.2005885917035906E+01    2.4291514038174054E+00
Au    1.1876833298406694E+01    1.2009416241212394E+01    2.4059274422540904E+00
Au    1.4842655534982924E+01    1.1989469932261539E+01    2.4100870321294350E+00
Au    1.4791606034269296E+00    1.4556679371710889E+01    2.4105839576572476E+00
Au    4.4436897193397851E+00    1.4566559311133235E+01    2.4089085098003977E+00
Au    7.4201924499924239E+00    1.4583181338015592E+01    2.4085614793451402E+00
Au    1.0391685951042549E+01    1.4583181337951995E+01    2.4085614789212078E+00
Au    1.3368188681884144E+01    1.4566559311085101E+01    2.4089085093761375E+00
Au    1.6332717797629570E+01    1.4556679371675843E+01    2.4105839585342381E+00
Au    2.7050166623527141E-09   -2.1321480804860831E-02    4.8728431222790007E+00
Au    2.9367952903402124E+00   -2.0783751400509823E-02    4.8711956424309291E+00
Au    5.8963552137293114E+00   -2.1496444429267188E-02    4.8709502914862988E+00
Au    8.9059392005796347E+00   -6.6022684142375727E-03    4.8590409560020946E+00
Au    1.1915523188812081E+01   -2.1496446272927044E-02    4.8709502914448484E+00
Au    1.4875083111799448E+01   -2.0783751212021143E-02    4.8711956423095328E+00
Au    1.4627216380469457E+00    2.5430747519882235E+00    4.8757959263995687E+00
Au    4.3941292628335145E+00    2.5177626923599448E+00    4.8725667763916523E+00
Au    7.3574792324007126E+00    2.4756807559588285E+00    4.8559072840449327E+00
Au    1.0454399171432950E+01    2.4756807548207602E+00    4.8559072842491950E+00
Au    1.3417749138897516E+01    2.5177626929951540E+00    4.8725667761283233E+00
Au    1.6349156763629690E+01    2.5430747510667429E+00    4.8757959254167531E+00
Au    2.3139030818511104E-09    5.1204301233997436E+00    4.8678467327825814E+00
Au    2.9058247180120333E+00    5.1141393950123151E+00    4.8693107796404105E+00
Au    5.8138457910286050E+00    5.0645784796659301E+00    4.9039829843717984E+00
Au    8.9059392017721759E+00    4.9147484324384836E+00    4.7923334677841858E+00
Au    1.1998032610051267E+01    5.0645784803092218E+00    4.9039829827802164E+00
Au    1.4906053683699271E+01    5.1141393952804588E+00    4.8693107800255540E+00
Au    1.4544884596584080E+00    7.7053245568815649E+00    4.8680936429293844E+00
Au    4.3438630052995109E+00    7.7067015138932575E+00    4.8564784413827633E+00
Au    7.2305829660872263E+00    7.8201806391216468E+00    4.7915228920946520E+00
Au    1.0581295435869194E+01    7.8201806387286714E+00    4.7915228916132966E+00
Au    1.3468015395699162E+01    7.7067015164629646E+00    4.8564784423111034E+00
Au    1.6357389941109112E+01    7.7053245555622567E+00    4.8680936426309334E+00
Au    2.6277787622481243E-09    1.0275128370636793E+01    4.8594619439285305E+00
Au    2.9389907825953587E+00    1.0289783920627587E+01    4.8588704348264828E+00
Au    5.8729332317019418E+00    1.0372553647055415E+01    4.8525279228952485E+00
Au    8.9059392028103321E+00    1.0413922146685753E+01    4.9015595258243341E+00
Au    1.1938945170550065E+01    1.0372553646999258E+01    4.8525279247824864E+00
Au    1.4872887619300297E+01    1.0289783922258394E+01    4.8588704348505543E+00
Au    1.4711390303870768E+00    1.2843437050090124E+01    4.8639228792872018E+00
Au    4.4152241938067416E+00    1.2872361066057680E+01    4.8705742209102194E+00
Au    7.3977242573829631E+00    1.2905758403183375E+01    4.8611767998434772E+00
Au    1.0414154143942209E+01    1.2905758404231541E+01    4.8611767993301163E+00
Au    1.3396654208530951E+01    1.2872361066356131E+01    4.8705742202877236E+00
Au    1.6340739372041497E+01    1.2843437049237380E+01    4.8639228797923026E+00
Au    7.4194422333898409E+00    5.9988083593432950E+00    6.9386081125341157E+00
Au    1.0392436172229381E+01    5.9988083537072505E+00    6.9386081111049789E+00
Au    8.9059391988124066E+00    8.5410179670511894E+00    6.9491066875497891E+00
Au    8.9059392102158874E+00    6.7875054305726081E+00    9.1136032061334440E+00
Au    8.9059394961762521E+00    5.8941094180570408E+00    1.1575271277799729E+01
Au    8.9059390926014430E+00    7.2135801243037641E+00    1.3821341383180586E+01
Au    8.9059392940686788E+00    6.5503431870922020E+00    1.6326618474699860E+01
Au    8.9059388884501143E+00    7.8520265344715767E+00    1.8582064635460860E+01
Au    8.9059391943632971E+00    6.9168415627580675E+00    2.1030546301173139E+01
Au    8.9059391984154495E+00    5.1819389404643461E+00    2.3223958112470140E+01
Au    7.4334585344599535E+00    7.7101714936819832E+00    2.3226710769465861E+01
Au    1.0378419867260448E+01    7.7101714848691447E+00    2.3226710770035830E+01
Au    1.9336158166390884E-09    1.7135251057304448E+00    2.5367759400329202E+01
Au    2.9444571707478899E+00    1.7124435711278170E+00    2.5362421182276073E+01
Au    5.8932314268074473E+00    1.6778357124799619E+00    2.5367799024878710E+01
Au    8.9059392013215160E+00    1.6700260027477660E+00    2.5352836757759160E+01
Au    1.1918646973118024E+01    1.6778357157666195E+00    2.5367799024509157E+01
Au    1.4867421229363124E+01    1.7124435686614756E+00    2.5362421180443249E+01
Au    1.4711480728346968E+00    4.2833859394788076E+00    2.5366410355808181E+01
Au    4.4085053622073715E+00    4.2681342012373946E+00    2.5379688578501071E+01
Au    7.3643011016995068E+00    4.1837525200371148E+00    2.5338097368660673E+01
Au    1.0447577289966043E+01    4.1837525208949531E+00    2.5338097368454790E+01
Au    1.3403373036894958E+01    4.2681341966561623E+00    2.5379688575425412E+01
Au    1.6340730325909725E+01    4.2833859427243377E+00    2.5366410353881552E+01
Au    1.4314614289030809E-09    6.8647077755070454E+00    2.5362039320315994E+01
Au    2.9125445413793734E+00    6.8597048273964791E+00    2.5364284467131085E+01
Au    5.8141349551095889E+00    6.8758176656753340E+00    2.5337856980304618E+01
Au    8.9059391973465658E+00    6.8717857804403062E+00    2.5545446689699766E+01
Au    1.1997743443721827E+01    6.8758176604800374E+00    2.5337856982406084E+01
Au    1.4899333857978275E+01    6.8597048258153723E+00    2.5364284466063349E+01
Au    1.4654908648882534E+00    9.4431194989108267E+00    2.5358005463323593E+01
Au    4.3954823251121011E+00    9.4662347253537948E+00    2.5340978964280499E+01
Au    7.3441264005698619E+00    9.5363063932975560E+00    2.5339151897434505E+01
Au    1.0467752005631931E+01    9.5363063934370800E+00    2.5339151896061413E+01
Au    1.3416396074667821E+01    9.4662347200437154E+00    2.5340978965454365E+01
Au    1.6346387536087299E+01    9.4431195018601386E+00    2.5358005463464139E+01
Au    1.9399074798513491E-09    1.2011244402839827E+01    2.5359433671237504E+01
Au    2.9470536723730985E+00    1.2016670974567674E+01    2.5358660860189310E+01
Au    5.9044654290925793E+00    1.2055751011373317E+01    2.5366529901036838E+01
Au    8.9059391990308043E+00    1.2047173231030305E+01    2.5383285475685366E+01
Au    1.1907412972250894E+01    1.2055751012245524E+01    2.5366529900432901E+01
Au    1.4864824728191889E+01    1.2016670971153188E+01    2.5358660860215860E+01
Au    1.4736085446033464E+00    1.4572431250774381E+01    2.5364828805027063E+01
Au    4.4248830616342225E+00    1.4576902239788856E+01    2.5361578465099818E+01
Au    7.4100749758691649E+00    1.4578233807176154E+01    2.5365022829130087E+01
Au    1.0401803424980804E+01    1.4578233804530862E+01    2.5365022829523451E+01
Au    1.3386995338290811E+01    1.4576902238447619E+01    2.5361578465152419E+01
Au    1.6338269855528747E+01    1.4572431252783893E+01    2.5364828805421965E+01
Au    1.7049663536010531E-09    6.0154664575438783E-03    2.7817652719000879E+01
Au    2.9650951749954855E+00    7.5153147394921337E-03    2.7816484453342280E+01
Au    5.9345173002041607E+00   -4.6107897122399143E-03    2.7818859495309166E+01
Au    8.9059392001706268E+00    5.2075322247322449E-03    2.7811835398563399E+01
Au    1.1877361099386031E+01   -4.6107894914863322E-03    2.7818859495036090E+01
Au    1.4846783224458990E+01    7.5153152511235177E-03    2.7816484453150441E+01
Au    1.4843770043623601E+00    2.5793249823487523E+00    2.7815977106907074E+01
Au    4.4523649193136663E+00    2.5719238411248400E+00    2.7819911997411189E+01
Au    7.4145629479369033E+00    2.5713437365575404E+00    2.7808259971761768E+01
Au    1.0397315452047016E+01    2.5713437374342942E+00    2.7808259971435035E+01
Au    1.3359513481471282E+01    2.5719238409327168E+00    2.7819911997490575E+01
Au    1.6327501395466250E+01    2.5793249820456232E+00    2.7815977104628729E+01
Au    6.2144839925042440E-10    5.1511496249967621E+00    2.7816615436700328E+01
Au    2.9663091439070328E+00    5.1499210716871469E+00    2.7819346637278525E+01
Au    5.9422662810566331E+00    5.1507868658659106E+00    2.7776309718796451E+01
Au    8.9059391991377499E+00    5.1253910335056263E+00    2.7815009853740346E+01
Au    1.1869612117705193E+01    5.1507868636848384E+00    2.7776309717895366E+01
Au    1.4845569254299255E+01    5.1499210710272152E+00    2.7819346636688859E+01
Au    1.4812224855245639E+00    7.7239191719733640E+00    2.7817799216420180E+01
Au    4.4479529719528195E+00    7.7156266984188502E+00    2.7808550052315471E+01
Au    7.4038658371880191E+00    7.7261792468856365E+00    2.7820138802356745E+01
Au    1.0408012562348025E+01    7.7261792464382291E+00    2.7820138800817833E+01
Au    1.3363925427413701E+01    7.7156266967221709E+00    2.7808550052892723E+01
Au    1.6330655913488730E+01    7.7239191712250355E+00    2.7817799215096244E+01
Au    1.5858105961824317E-09    1.0295013050536204E+01    2.7814893432421407E+01
Au    2.9717812386745788E+00    1.0284443398162407E+01    2.7810521836969386E+01
Au    5.9339520915690560E+00    1.0293834745478680E+01    2.7809800773869455E+01
Au    8.9059391999256565E+00    1.0276955443826235E+01    2.7776530913056426E+01
Au    1.1877926308022536E+01    1.0293834744792946E+01    2.7809800774385042E+01
Au    1.4840097160807385E+01    1.0284443397737016E+01    2.7810521837730505E+01
Au    1.4816738349234786E+00    1.2860073132115321E+01    2.7817101796170846E+01
Au    4.4411979511698529E+00    1.2858984579547574E+01    2.7817095850848283E+01
Au    7.4181466189408001E+00    1.2854787979587343E+01    2.7819164496435413E+01
Au    1.0393731781158452E+01    1.2854787979286000E+01    2.7819164496143742E+01
Au    1.3370680448727912E+01    1.2858984579323828E+01    2.7817095850483028E+01
Au    1.6330204564513046E+01    1.2860073131847127E+01    2.7817101795194166E+01
     &END COORD
     &KIND Au
       BASIS_SET TZVP-MOLOPT-SR-GTH-q11
       ELEMENT Au
       POTENTIAL GTH-PBE-q11
       &POTENTIAL
1 0 10
0.5900000000000000E+00 1  0.1051717881000000E+02
3
0.5438473300000000E+00 2  0.5786811030000000E+01 -0.2250679660000000E+01
0.2905614950000000E+01
0.6091729800000000E+00 2  0.4284048730000000E+01 -0.4071285200000000E+01
0.4817209620000000E+01
0.4373092200000000E+00 2 -0.7403281240000000E+01  0.3010193070000000E+01
-0.3413238110000000E+01
       &END POTENTIAL
     &END KIND
     &TOPOLOGY
       COORD_FILE_NAME junction_6.xyz
       COORD_FILE_FORMAT  XYZ
       NUMBER_OF_ATOMS  192
       MULTIPLE_UNIT_CELL  1 1 1
     &END TOPOLOGY
   &END SUBSYS
   &PRINT
     &TOTAL_NUMBERS  ON
     &END TOTAL_NUMBERS
   &END PRINT
 &END FORCE_EVAL
 &EXT_RESTART
   RESTART_FILE_NAME 
   RESTART_DEFAULT  F
   RESTART_COUNTERS  T
   RESTART_POS  T
   RESTART_VEL  F
   RESTART_RANDOMG  F
   RESTART_SHELL_POS  F
   RESTART_CORE_POS  F
   RESTART_OPTIMIZE_INPUT_VARIABLES  F
   RESTART_SHELL_VELOCITY  F
   RESTART_CORE_VELOCITY  F
   RESTART_BAROSTAT  F
   RESTART_BAROSTAT_THERMOSTAT  F
   RESTART_SHELL_THERMOSTAT  F
   RESTART_THERMOSTAT  F
   RESTART_CELL  F
   RESTART_METADYNAMICS  F
   RESTART_WALKERS  F
   RESTART_BAND  F
   RESTART_QMMM  F
   RESTART_CONSTRAINT  F
   RESTART_BSSE  F
   RESTART_DIMER  F
   RESTART_AVERAGES  F
   RESTART_RTP  F
   RESTART_PINT_POS  F
   RESTART_PINT_VEL  F
   RESTART_PINT_NOSE  F
   RESTART_PINT_GLE  F
   RESTART_HELIUM_POS  F
   RESTART_HELIUM_PERMUTATION  F
   RESTART_HELIUM_FORCE  F
   RESTART_HELIUM_RNG  F
 &END EXT_RESTART
