SystemName		    Bulk transport		# Descriptive name of the system
SystemLabel 			bulk		# Short name for naming files
NumberOfAtoms    60
NumberOfSpecies			1               # Number of species

PAO.BasisType			split		# Type of basis ('nones', 'nonodes', 'split')

%block ChemicalSpeciesLabel
1 79 Au
%endblock ChemicalSpeciesLabel

%block PAO.BasisSizes
Au SZ
%endblock PAO.BasisSizes

LatticeConstant 1.000 Ang

%block LatticeVectors
  14.582      0.000   0.000	  1
  0.000  8.866   0.000   1
  0.000   0.000      8.3600  1
%endblock LatticeVectors

AtomicCoordinatesFormat Ang

%block AtomicCoordinatesAndAtomicSpecies
0.0 0.0 0.0 1 Au
0.0 2.955 0.0 1 Au
0.0 5.911 0.0 1 Au
2.956 0.0 0.0 1 Au
2.956 2.955 0.0 1 Au
2.956 5.911 0.0 1 Au
5.912 0.0 0.0 1 Au
5.912 2.955 0.0 1 Au
5.912 5.911 0.0 1 Au
8.67 0.0 0.0 1 Au
8.67 2.955 0.0 1 Au
8.67 5.911 0.0 1 Au
11.626 0.0 0.0 1 Au
11.626 2.955 0.0 1 Au
11.626 5.911 0.0 1 Au
1.478 1.478 2.09 1 Au
1.478 4.433 2.09 1 Au
1.478 7.389 2.09 1 Au
4.434 1.478 2.09 1 Au
4.434 4.433 2.09 1 Au
4.434 7.389 2.09 1 Au
7.192 1.478 2.09 1 Au
7.192 4.433 2.09 1 Au
7.192 7.389 2.09 1 Au
10.148 1.478 2.09 1 Au
10.148 4.433 2.09 1 Au
10.148 7.389 2.09 1 Au
13.104 1.478 2.09 1 Au
13.104 4.433 2.09 1 Au
13.104 7.389 2.09 1 Au
0.0 0.0 4.18 1 Au
0.0 2.955 4.18 1 Au
0.0 5.911 4.18 1 Au
2.956 0.0 4.18 1 Au
2.956 2.955 4.18 1 Au
2.956 5.911 4.18 1 Au
5.912 0.0 4.18 1 Au
5.912 2.955 4.18 1 Au
5.912 5.911 4.18 1 Au
8.67 0.0 4.18 1 Au
8.67 2.955 4.18 1 Au
8.67 5.911 4.18 1 Au
11.626 0.0 4.18 1 Au
11.626 2.955 4.18 1 Au
11.626 5.911 4.18 1 Au
1.478 1.478 6.27 1 Au
1.478 4.433 6.27 1 Au
1.478 7.389 6.27 1 Au
4.434 1.478 6.27 1 Au
4.434 4.433 6.27 1 Au
4.434 7.389 6.27 1 Au
7.192 1.478 6.27 1 Au
7.192 4.433 6.27 1 Au
7.192 7.389 6.27 1 Au
10.148 1.478 6.27 1 Au
10.148 4.433 6.27 1 Au
10.148 7.389 6.27 1 Au
13.104 1.478 6.27 1 Au
13.104 4.433 6.27 1 Au
13.104 7.389 6.27 1 Au
%endblock AtomicCoordinatesAndAtomicSpecies 	 
                                              
%block kgrid_Monkhorst_Pack
  2   0   0     0.0 
  0   4   0     0.0
  0   0   20    0.0
%endblock kgrid_Monkhorst_Pack

xc.functional		LDA		# 'LDA', 'GGA'
xc.authors 	 		CA		# 'CA'='PZ', 'PW92', 'PBE'
SpinPolarized			F		# 'T', 'F'		
#FixSpin           F
#TotalSpin        0.0    

NonCollinearSpin		F		# 'T', 'F'
MeshCutoff 	 		    200 Ry		# Equivalent plane wave cutoff for the grid
MaxSCFIterations		10000

DM.MixingWeight			0.1
DM.NumberPulay			4	# Pulay convergency accelerator

DM.PulayOnFile			F		# Store in memory ('F') or in files ('T')
#DM.NumberKick         30
#DM.KickMixingWeight   0.1
DM.Tolerance 		0.5E-5
NeglNonOverlapInt		F		# 'F'=do not neglect

SolutionMethod			diagon
ElectronicTemperature		300 K		# Default value

DM.UseSaveDM 			T

#MD.UseSaveXV			T
#MD.UseSaveCG			T

WriteForces      T
WriteCoorXmol			T		# Write Atoms coordinates

SaveElectrostaticPotential      T
#SaveHS				T		# Save the Hamiltonian and Overlap matrices
SaveRho				T		# Save the valence pseudocharge density
#SaveDeltaRho			T
#WriteDenchar			T		# Write Denchar output
WriteMullikenPop		1 #write mulliken population of aromic and orbital charges


#-----
#smeagol

#-----



BulkTransport			T
BulkLeads			LR

