 # Version information for this restart file 
 # current date 2023-02-22 11:08:34.887
 # current working dir /work4/scd/scarf1157/work/testing/cp2k-smeagol/bdt/cp2k/hollow-site/transport-cp2k/5-4/geometry-ordered/3x3-4/sz/bulk_layers-4/geo_opt/dzvp/Au-S-2.4_dft
 # Program compiled at                              Thu 26 Jan 13:39:53 GMT 2023
 # Program compiled on                                     cn1108.scarf.rl.ac.uk
 # Program compiled for                                                    local
 # Source code revision number                                       git:1ef701d
 &GLOBAL
   EXTENDED_FFT_LENGTHS  T
   PRINT_LEVEL  MEDIUM
   PROJECT_NAME dft_wfn
   RUN_TYPE  GEO_OPT
 &END GLOBAL
 &MOTION
   &GEO_OPT
     OPTIMIZER  BFGS
     MAX_ITER  1000
     STEP_START_VAL  10
   &END GEO_OPT
   &CONSTRAINT
     &FIXED_ATOMS
       LIST  1..40 76..116
     &END FIXED_ATOMS
   &END CONSTRAINT
   &PRINT
     &TRAJECTORY  ON
       FORMAT  XMOL
     &END TRAJECTORY
   &END PRINT
 &END MOTION
 &FORCE_EVAL
   METHOD  QS
   &DFT
     BASIS_SET_FILE_NAME BASIS_MOLOPT
     POTENTIAL_FILE_NAME GTH_POTENTIALS
     &SCF
       MAX_SCF  100
       EPS_SCF     9.9999999999999995E-08
       SCF_GUESS  ATOMIC
       ADDED_MOS  100
       &SMEAR  T
         METHOD  FERMI_DIRAC
         ELECTRONIC_TEMPERATURE     2.9300000000000000E+02
       &END SMEAR
       &MIXING  T
         METHOD  BROYDEN_MIXING
         ALPHA     2.9999999999999999E-01
         NBUFFER  8
       &END MIXING
       &PRINT
         &RESTART  SILENT
           FILENAME RESTART_0
         &END RESTART
       &END PRINT
     &END SCF
     &MGRID
       CUTOFF     4.0000000000000000E+02
     &END MGRID
     &XC
       DENSITY_CUTOFF     1.0000000000000000E-10
       GRADIENT_CUTOFF     1.0000000000000000E-10
       TAU_CUTOFF     1.0000000000000000E-10
       &XC_FUNCTIONAL  NO_SHORTCUT
         &PADE  T
         &END PADE
       &END XC_FUNCTIONAL
     &END XC
     &POISSON
       PERIODIC  XYZ
     &END POISSON
     &KPOINTS
       SCHEME MONKHORST-PACK 2 2 1
       SYMMETRY  F
       FULL_GRID  T
       VERBOSE  T
       EPS_GEO     1.0000000000000000E-08
       PARALLEL_GROUP_SIZE  0
     &END KPOINTS
     &PRINT
       &E_DENSITY_CUBE  ON
         STRIDE  2 2 2
       &END E_DENSITY_CUBE
       &V_HARTREE_CUBE  SILENT
         STRIDE  2 2 2
       &END V_HARTREE_CUBE
       &HIRSHFELD  SILENT
         SHAPE_FUNCTION  DENSITY
       &END HIRSHFELD
     &END PRINT
   &END DFT
   &SUBSYS
     &CELL
       A     8.2919999999999998E+00    0.0000000000000000E+00    0.0000000000000000E+00
       B     0.0000000000000000E+00    8.2919999999999998E+00    0.0000000000000000E+00
       C     0.0000000000000000E+00    0.0000000000000000E+00    3.3642000000000003E+01
       PERIODIC  XYZ
       MULTIPLE_UNIT_CELL  1 1 1
     &END CELL
     &COORD
Au    0.0000000000000000E+00    0.0000000000000000E+00    0.0000000000000000E+00
Au    0.0000000000000000E+00    4.1459999999999999E+00    0.0000000000000000E+00
Au    2.0730000000000000E+00    2.0730000000000000E+00    0.0000000000000000E+00
Au    2.0730000000000000E+00    6.2190000000000012E+00    0.0000000000000000E+00
Au    4.1459999999999999E+00    0.0000000000000000E+00    0.0000000000000000E+00
Au    4.1459999999999999E+00    4.1459999999999999E+00    0.0000000000000000E+00
Au    6.2190000000000012E+00    2.0730000000000000E+00    0.0000000000000000E+00
Au    6.2190000000000012E+00    6.2190000000000012E+00    0.0000000000000000E+00
Au    0.0000000000000000E+00    2.0730000000000000E+00    2.0730000000000000E+00
Au    0.0000000000000000E+00    6.2190000000000012E+00    2.0730000000000000E+00
Au    2.0730000000000000E+00    0.0000000000000000E+00    2.0730000000000000E+00
Au    2.0730000000000000E+00    4.1459999999999999E+00    2.0730000000000000E+00
Au    4.1459999999999999E+00    2.0730000000000000E+00    2.0730000000000000E+00
Au    4.1459999999999999E+00    6.2190000000000012E+00    2.0730000000000000E+00
Au    6.2190000000000012E+00    0.0000000000000000E+00    2.0730000000000000E+00
Au    6.2190000000000012E+00    4.1459999999999999E+00    2.0730000000000000E+00
Au    0.0000000000000000E+00    0.0000000000000000E+00    4.1459999999999999E+00
Au    0.0000000000000000E+00    4.1459999999999999E+00    4.1459999999999999E+00
Au    2.0730000000000000E+00    2.0730000000000000E+00    4.1459999999999999E+00
Au    2.0730000000000000E+00    6.2190000000000012E+00    4.1459999999999999E+00
Au    4.1459999999999999E+00    0.0000000000000000E+00    4.1459999999999999E+00
Au    4.1459999999999999E+00    4.1459999999999999E+00    4.1459999999999999E+00
Au    6.2190000000000012E+00    2.0730000000000000E+00    4.1459999999999999E+00
Au    6.2190000000000012E+00    6.2190000000000012E+00    4.1459999999999999E+00
Au    0.0000000000000000E+00    2.0730000000000000E+00    6.2190000000000012E+00
Au    0.0000000000000000E+00    6.2190000000000012E+00    6.2190000000000012E+00
Au    2.0730000000000000E+00    0.0000000000000000E+00    6.2190000000000012E+00
Au    2.0730000000000000E+00    4.1459999999999999E+00    6.2190000000000012E+00
Au    4.1459999999999999E+00    2.0730000000000000E+00    6.2190000000000012E+00
Au    4.1459999999999999E+00    6.2190000000000012E+00    6.2190000000000012E+00
Au    6.2190000000000012E+00    0.0000000000000000E+00    6.2190000000000012E+00
Au    6.2190000000000012E+00    4.1459999999999999E+00    6.2190000000000012E+00
Au    0.0000000000000000E+00    0.0000000000000000E+00    8.2919999999999998E+00
Au    0.0000000000000000E+00    4.1459999999999999E+00    8.2919999999999998E+00
Au    2.0730000000000000E+00    2.0730000000000000E+00    8.2919999999999998E+00
Au    2.0730000000000000E+00    6.2190000000000012E+00    8.2919999999999998E+00
Au    4.1459999999999999E+00    0.0000000000000000E+00    8.2919999999999998E+00
Au    4.1459999999999999E+00    4.1459999999999999E+00    8.2919999999999998E+00
Au    6.2190000000000012E+00    2.0730000000000000E+00    8.2919999999999998E+00
Au    6.2190000000000012E+00    6.2190000000000012E+00    8.2919999999999998E+00
Au   -1.4796779211123946E-04    2.0732490390345730E+00    1.0363326853268338E+01
Au   -1.8858905006441015E-06    6.2180296899578140E+00    1.0332879969288630E+01
Au    2.0840525011031708E+00    2.4146950207276235E-02    1.0386254348750780E+01
Au    2.0852520379161739E+00    4.1210407791083403E+00    1.0388838569878097E+01
Au    4.1459088346743158E+00    2.0732979549777051E+00    1.0338698222625657E+01
Au    4.1460549522428742E+00    6.2191853356475910E+00    1.0333298311615122E+01
Au    6.2080997382917165E+00    2.4059729467125299E-02    1.0386267244705090E+01
Au    6.2068754796604599E+00    4.1211190591087146E+00    1.0388876646867461E+01
Au   -2.7966058500762111E-04   -5.9195355479672668E-02    1.2469497354147807E+01
Au   -2.6747917539266821E-04    4.2046217754387927E+00    1.2468212375115128E+01
Au    1.8816197787375466E+00    2.0693920504920786E+00    1.2507104828237745E+01
Au    2.0002854917971029E+00    6.2217362521209409E+00    1.2452028174546170E+01
Au    4.1467616726683039E+00   -1.9347429501427657E-01    1.2451918459108217E+01
Au    4.1467460865263623E+00    4.3503589636587883E+00    1.2455840912188437E+01
Au    6.4100969185599377E+00    2.0693860876906034E+00    1.2507976594965974E+01
Au    6.2918116911705768E+00    6.2217468748646709E+00    1.2453594191271099E+01
S    4.1446585529184103E+00    2.0881853114090232E+00    1.3697898344640038E+01
C    4.1432409080120411E+00    2.0824417156373642E+00    1.5442710774813666E+01
H    1.9953270845050941E+00    2.0804039737132762E+00    1.5553699976884294E+01
H    6.2911592120169315E+00    2.0802695499839281E+00    1.5558701042923257E+01
C    2.9283673396381542E+00    2.0776904295255880E+00    1.6122789907738120E+01
C    5.3566980188760001E+00    2.0776032419879220E+00    1.6125363992083560E+01
C    2.9266995023672533E+00    2.0685875015010713E+00    1.7500198682978858E+01
C    5.3551504615966996E+00    2.0685084913653005E+00    1.7502767185792028E+01
H    1.9924725479246799E+00    2.0650888980144240E+00    1.8067143747113015E+01
H    6.2877492567761264E+00    2.0649283167802506E+00    1.8072217523990172E+01
C    4.1402605949446611E+00    2.0643189720084423E+00    1.8182390375825253E+01
S    4.1395694191236752E+00    2.0602993397567859E+00    1.9926749135131118E+01
Au   -1.8865781460456945E-02   -6.4648190344030132E-02    2.1168995427603786E+01
Au   -2.0481355824041599E-02    4.2120316250953724E+00    2.1166900766987823E+01
Au    1.8692351963814655E+00    2.0765259413330828E+00    2.1151679792217859E+01
Au    1.9933171375600580E+00    6.2160845286402466E+00    2.1164239380966201E+01
Au    4.1112324580099973E+00   -1.7039056827393248E-01    2.1191262477190300E+01
Au    4.1138049831553865E+00    4.3085818470799291E+00    2.1193396947531951E+01
Au    6.3939201144933753E+00    2.0755263428717741E+00    2.1161504486075664E+01
Au    6.2190000000000012E+00    6.2190000000000012E+00    2.1204000000000004E+01
Au    0.0000000000000000E+00    2.0730000000000000E+00    2.3277000000000001E+01
Au    0.0000000000000000E+00    6.2190000000000012E+00    2.3277000000000001E+01
Au    2.0730000000000000E+00    0.0000000000000000E+00    2.3277000000000001E+01
Au    2.0730000000000000E+00    4.1459999999999999E+00    2.3277000000000001E+01
Au    4.1459999999999999E+00    2.0730000000000000E+00    2.3277000000000001E+01
Au    4.1459999999999999E+00    6.2190000000000012E+00    2.3277000000000001E+01
Au    6.2190000000000012E+00    0.0000000000000000E+00    2.3277000000000001E+01
Au    6.2190000000000012E+00    4.1459999999999999E+00    2.3277000000000001E+01
Au    0.0000000000000000E+00    0.0000000000000000E+00    2.5350000000000001E+01
Au    0.0000000000000000E+00    4.1459999999999999E+00    2.5350000000000001E+01
Au    2.0730000000000000E+00    2.0730000000000000E+00    2.5350000000000001E+01
Au    2.0730000000000000E+00    6.2190000000000012E+00    2.5350000000000001E+01
Au    4.1459999999999999E+00    0.0000000000000000E+00    2.5350000000000001E+01
Au    4.1459999999999999E+00    4.1459999999999999E+00    2.5350000000000001E+01
Au    6.2190000000000012E+00    2.0730000000000000E+00    2.5350000000000001E+01
Au    6.2190000000000012E+00    6.2190000000000012E+00    2.5350000000000001E+01
Au    0.0000000000000000E+00    2.0730000000000000E+00    2.7423000000000002E+01
Au    0.0000000000000000E+00    6.2190000000000012E+00    2.7423000000000002E+01
Au    2.0730000000000000E+00    0.0000000000000000E+00    2.7423000000000002E+01
Au    2.0730000000000000E+00    4.1459999999999999E+00    2.7423000000000002E+01
Au    4.1459999999999999E+00    2.0730000000000000E+00    2.7423000000000002E+01
Au    4.1459999999999999E+00    6.2190000000000012E+00    2.7423000000000002E+01
Au    6.2190000000000012E+00    0.0000000000000000E+00    2.7423000000000002E+01
Au    6.2190000000000012E+00    4.1459999999999999E+00    2.7423000000000002E+01
Au    0.0000000000000000E+00    0.0000000000000000E+00    2.9495999999999999E+01
Au    0.0000000000000000E+00    4.1459999999999999E+00    2.9495999999999999E+01
Au    2.0730000000000000E+00    2.0730000000000000E+00    2.9495999999999999E+01
Au    2.0730000000000000E+00    6.2190000000000012E+00    2.9495999999999999E+01
Au    4.1459999999999999E+00    0.0000000000000000E+00    2.9495999999999999E+01
Au    4.1459999999999999E+00    4.1459999999999999E+00    2.9495999999999999E+01
Au    6.2190000000000012E+00    2.0730000000000000E+00    2.9495999999999999E+01
Au    6.2190000000000012E+00    6.2190000000000012E+00    2.9495999999999999E+01
Au    0.0000000000000000E+00    2.0730000000000000E+00    3.1569000000000003E+01
Au    0.0000000000000000E+00    6.2190000000000012E+00    3.1569000000000003E+01
Au    2.0730000000000000E+00    0.0000000000000000E+00    3.1569000000000003E+01
Au    2.0730000000000000E+00    4.1459999999999999E+00    3.1569000000000003E+01
Au    4.1459999999999999E+00    2.0730000000000000E+00    3.1569000000000003E+01
Au    4.1459999999999999E+00    6.2190000000000012E+00    3.1569000000000003E+01
Au    6.2190000000000012E+00    0.0000000000000000E+00    3.1569000000000003E+01
Au    6.2190000000000012E+00    4.1459999999999999E+00    3.1569000000000003E+01
     &END COORD
     &KIND Au
       BASIS_SET SZV-MOLOPT-SR-GTH
       POTENTIAL GTH-PADE-q11
       &POTENTIAL
 1 0 10
  0.5900000000000000E+00 1  0.1160442790000000E+02
 3
  0.5211797500000001E+00 2  0.2538613590000000E+01 -0.1046136640000000E+01
  0.2701113200000000E+01
  0.6306130599999999E+00 2  0.3948527000000000E+00 -0.8695921300000000E+00
  0.2057830560000000E+01
  0.4407064300000000E+00 2 -0.4719069660000000E+01  0.7277708100000000E+00
 -0.1650429070000000E+01
         # Potential name:  GTH-PADE-Q11  for symbol:  AU
         # Potential read from the potential filename: GTH_POTENTIALS
       &END POTENTIAL
     &END KIND
     &KIND C
       BASIS_SET DZVP-MOLOPT-SR-GTH
       ELEMENT C
       POTENTIAL GTH-PADE-q4
       &POTENTIAL
 2 2
  0.3488304500000000E+00 2 -0.8513771100000000E+01  0.1228432030000000E+01
 2
  0.3045532100000000E+00 1  0.9522841789999999E+01
  0.2326773000000000E+00 0
         # Potential name:  GTH-PADE-Q4  for symbol:  C
         # Potential read from the potential filename: GTH_POTENTIALS
       &END POTENTIAL
     &END KIND
     &KIND S
       BASIS_SET DZVP-MOLOPT-SR-GTH
       ELEMENT S
       POTENTIAL GTH-PADE-q6
       &POTENTIAL
 2 4
  0.4200000000000000E+00 1 -0.6554491840000000E+01
 2
  0.3617566500000000E+00 2  0.7905302500000000E+01 -0.1731881300000000E+01
  0.4471698300000000E+01
  0.4052850200000000E+00 1  0.3866579000000000E+01
         # Potential name:  GTH-PADE-Q6  for symbol:  S
         # Potential read from the potential filename: GTH_POTENTIALS
       &END POTENTIAL
     &END KIND
     &KIND H
       BASIS_SET DZVP-MOLOPT-SR-GTH
       ELEMENT H
       POTENTIAL GTH-PADE-q1
       &POTENTIAL
 1
  0.2000000000000000E+00 2 -0.4180236800000000E+01  0.7250748200000000E+00
 0
         # Potential name:  GTH-PADE-Q1  for symbol:  H
         # Potential read from the potential filename: GTH_POTENTIALS
       &END POTENTIAL
     &END KIND
     &TOPOLOGY
       COORD_FILE_NAME em.xyz
       COORD_FILE_FORMAT  XYZ
       NUMBER_OF_ATOMS  116
       MULTIPLE_UNIT_CELL  1 1 1
     &END TOPOLOGY
   &END SUBSYS
 &END FORCE_EVAL
