 # Version information for this restart file 
 # current date 2023-02-21 22:07:02.070
 # current working dir /work4/scd/scarf1157/work/testing/cp2k-smeagol/bdt/cp2k/hollow-site/transport-cp2k/5-4/geometry-ordered/3x3-4/sz/bulk_layers-4/geo_opt/Au-S-2.65_dft
 # Program compiled at                              Thu 26 Jan 13:39:53 GMT 2023
 # Program compiled on                                     cn1108.scarf.rl.ac.uk
 # Program compiled for                                                    local
 # Source code revision number                                       git:1ef701d
 &GLOBAL
   EXTENDED_FFT_LENGTHS  T
   PRINT_LEVEL  MEDIUM
   PROJECT_NAME dft_wfn
   RUN_TYPE  GEO_OPT
 &END GLOBAL
 &MOTION
   &GEO_OPT
     OPTIMIZER  BFGS
     MAX_ITER  1000
     STEP_START_VAL  10
   &END GEO_OPT
   &CONSTRAINT
     &FIXED_ATOMS
       LIST  1..40 76..116
     &END FIXED_ATOMS
   &END CONSTRAINT
   &PRINT
     &TRAJECTORY  ON
       FORMAT  XMOL
     &END TRAJECTORY
   &END PRINT
 &END MOTION
 &FORCE_EVAL
   METHOD  QS
   &DFT
     BASIS_SET_FILE_NAME BASIS_MOLOPT
     POTENTIAL_FILE_NAME GTH_POTENTIALS
     &SCF
       MAX_SCF  100
       EPS_SCF     9.9999999999999995E-08
       SCF_GUESS  ATOMIC
       ADDED_MOS  100
       &SMEAR  T
         METHOD  FERMI_DIRAC
         ELECTRONIC_TEMPERATURE     2.9300000000000000E+02
       &END SMEAR
       &MIXING  T
         METHOD  BROYDEN_MIXING
         ALPHA     2.9999999999999999E-01
         NBUFFER  8
       &END MIXING
       &PRINT
         &RESTART  SILENT
           FILENAME RESTART_0
         &END RESTART
       &END PRINT
     &END SCF
     &MGRID
       CUTOFF     4.0000000000000000E+02
     &END MGRID
     &XC
       DENSITY_CUTOFF     1.0000000000000000E-10
       GRADIENT_CUTOFF     1.0000000000000000E-10
       TAU_CUTOFF     1.0000000000000000E-10
       &XC_FUNCTIONAL  NO_SHORTCUT
         &PADE  T
         &END PADE
       &END XC_FUNCTIONAL
     &END XC
     &POISSON
       PERIODIC  XYZ
     &END POISSON
     &KPOINTS
       SCHEME MONKHORST-PACK 2 2 1
       SYMMETRY  F
       FULL_GRID  T
       VERBOSE  T
       EPS_GEO     1.0000000000000000E-08
       PARALLEL_GROUP_SIZE  0
     &END KPOINTS
     &PRINT
       &E_DENSITY_CUBE  ON
         STRIDE  2 2 2
       &END E_DENSITY_CUBE
       &V_HARTREE_CUBE  SILENT
         STRIDE  2 2 2
       &END V_HARTREE_CUBE
       &HIRSHFELD  SILENT
         SHAPE_FUNCTION  DENSITY
       &END HIRSHFELD
     &END PRINT
   &END DFT
   &SUBSYS
     &CELL
       A     8.2919999999999998E+00    0.0000000000000000E+00    0.0000000000000000E+00
       B     0.0000000000000000E+00    8.2919999999999998E+00    0.0000000000000000E+00
       C     0.0000000000000000E+00    0.0000000000000000E+00    3.4524000000000001E+01
       PERIODIC  XYZ
       MULTIPLE_UNIT_CELL  1 1 1
     &END CELL
     &COORD
Au    0.0000000000000000E+00    0.0000000000000000E+00    0.0000000000000000E+00
Au    0.0000000000000000E+00    4.1459999999999999E+00    0.0000000000000000E+00
Au    2.0730000000000000E+00    2.0730000000000000E+00    0.0000000000000000E+00
Au    2.0730000000000000E+00    6.2190000000000012E+00    0.0000000000000000E+00
Au    4.1459999999999999E+00    0.0000000000000000E+00    0.0000000000000000E+00
Au    4.1459999999999999E+00    4.1459999999999999E+00    0.0000000000000000E+00
Au    6.2190000000000012E+00    2.0730000000000000E+00    0.0000000000000000E+00
Au    6.2190000000000012E+00    6.2190000000000012E+00    0.0000000000000000E+00
Au    0.0000000000000000E+00    2.0730000000000000E+00    2.0730000000000000E+00
Au    0.0000000000000000E+00    6.2190000000000012E+00    2.0730000000000000E+00
Au    2.0730000000000000E+00    0.0000000000000000E+00    2.0730000000000000E+00
Au    2.0730000000000000E+00    4.1459999999999999E+00    2.0730000000000000E+00
Au    4.1459999999999999E+00    2.0730000000000000E+00    2.0730000000000000E+00
Au    4.1459999999999999E+00    6.2190000000000012E+00    2.0730000000000000E+00
Au    6.2190000000000012E+00    0.0000000000000000E+00    2.0730000000000000E+00
Au    6.2190000000000012E+00    4.1459999999999999E+00    2.0730000000000000E+00
Au    0.0000000000000000E+00    0.0000000000000000E+00    4.1459999999999999E+00
Au    0.0000000000000000E+00    4.1459999999999999E+00    4.1459999999999999E+00
Au    2.0730000000000000E+00    2.0730000000000000E+00    4.1459999999999999E+00
Au    2.0730000000000000E+00    6.2190000000000012E+00    4.1459999999999999E+00
Au    4.1459999999999999E+00    0.0000000000000000E+00    4.1459999999999999E+00
Au    4.1459999999999999E+00    4.1459999999999999E+00    4.1459999999999999E+00
Au    6.2190000000000012E+00    2.0730000000000000E+00    4.1459999999999999E+00
Au    6.2190000000000012E+00    6.2190000000000012E+00    4.1459999999999999E+00
Au    0.0000000000000000E+00    2.0730000000000000E+00    6.2190000000000012E+00
Au    0.0000000000000000E+00    6.2190000000000012E+00    6.2190000000000012E+00
Au    2.0730000000000000E+00    0.0000000000000000E+00    6.2190000000000012E+00
Au    2.0730000000000000E+00    4.1459999999999999E+00    6.2190000000000012E+00
Au    4.1459999999999999E+00    2.0730000000000000E+00    6.2190000000000012E+00
Au    4.1459999999999999E+00    6.2190000000000012E+00    6.2190000000000012E+00
Au    6.2190000000000012E+00    0.0000000000000000E+00    6.2190000000000012E+00
Au    6.2190000000000012E+00    4.1459999999999999E+00    6.2190000000000012E+00
Au    0.0000000000000000E+00    0.0000000000000000E+00    8.2919999999999998E+00
Au    0.0000000000000000E+00    4.1459999999999999E+00    8.2919999999999998E+00
Au    2.0730000000000000E+00    2.0730000000000000E+00    8.2919999999999998E+00
Au    2.0730000000000000E+00    6.2190000000000012E+00    8.2919999999999998E+00
Au    4.1459999999999999E+00    0.0000000000000000E+00    8.2919999999999998E+00
Au    4.1459999999999999E+00    4.1459999999999999E+00    8.2919999999999998E+00
Au    6.2190000000000012E+00    2.0730000000000000E+00    8.2919999999999998E+00
Au    6.2190000000000012E+00    6.2190000000000012E+00    8.2919999999999998E+00
Au   -8.3684265263362918E-05    2.0734939744523744E+00    1.0394261788522050E+01
Au   -5.5917152429047757E-05    6.2181815787437520E+00    1.0337991269097632E+01
Au    2.0882376664073630E+00    2.7949125148865647E-02    1.0389949987764805E+01
Au    2.0892170832372225E+00    4.1178578944487612E+00    1.0392356950652873E+01
Au    4.1459441778192190E+00    2.0739197079816947E+00    1.0400981600508093E+01
Au    4.1461773052643851E+00    6.2193437480968763E+00    1.0361150696918211E+01
Au    6.2038901298910112E+00    2.7857760355126032E-02    1.0390021524428551E+01
Au    6.2029035352973318E+00    4.1179492022369075E+00    1.0392438152391167E+01
Au   -1.7191718878535134E-04   -4.5390970773857932E-02    1.2471897810575522E+01
Au   -1.6152036951427433E-04    4.1907907083508755E+00    1.2471551121120042E+01
Au    1.9386473070675274E+00    2.0704264984999545E+00    1.2547011835589942E+01
Au    2.0134213503134197E+00    6.2212051466617471E+00    1.2458028215263358E+01
Au    4.1464777140473243E+00   -1.4950370605261798E-01    1.2492322485914276E+01
Au    4.1464791862781851E+00    4.3044452049140585E+00    1.2496017813404178E+01
Au    6.3529359548408664E+00    2.0704258818652166E+00    1.2547508797015491E+01
Au    6.2787115420640376E+00    6.2212140660717763E+00    1.2459274757879987E+01
S    4.1446683977560594E+00    2.0841082370898443E+00    1.4043861680071046E+01
C    4.1434415228823367E+00    2.0804363137043111E+00    1.5860615091787064E+01
H    1.9832657786392767E+00    2.0790837144261087E+00    1.6020770585682698E+01
H    6.3031828845669349E+00    2.0789437723375266E+00    1.6024503768117583E+01
C    2.9235774631818296E+00    2.0767199665318041E+00    1.6561226894701139E+01
C    5.3620400958354537E+00    2.0770862572342867E+00    1.6563481295560500E+01
C    2.9221078427572520E+00    2.0706462251781756E+00    1.7963653689215498E+01
C    5.3608334632159149E+00    2.0702792183859224E+00    1.7965903500368096E+01
H    1.9802523744935403E+00    2.0671785365229369E+00    1.8500988935338839E+01
H    6.3018438011188431E+00    2.0672629496493204E+00    1.8504735117548002E+01
C    4.1408596833062603E+00    2.0677957826868023E+00    1.8667152873580886E+01
S    4.1400527103467244E+00    2.0645830150186026E+00    2.0485773774035124E+01
Au   -1.3981982318738278E-02   -4.4153416121941749E-02    2.2057031400729240E+01
Au   -1.5159875922609796E-02    4.1910208022848936E+00    2.2055668276144122E+01
Au    1.9317059230680509E+00    2.0750293844333130E+00    2.2016879969339232E+01
Au    2.0111336731008671E+00    6.2167887366567749E+00    2.2050979622556461E+01
Au    4.1198556601459702E+00   -1.2614601352324933E-01    2.2054463071754633E+01
Au    4.1218814914322630E+00    4.2661427707994912E+00    2.2056204570470879E+01
Au    6.3376906539948568E+00    2.0742994697220789E+00    2.2021958711689820E+01
Au    6.2190000000000012E+00    6.2190000000000012E+00    2.2085999999999999E+01
Au    0.0000000000000000E+00    2.0730000000000000E+00    2.4159000000000002E+01
Au    0.0000000000000000E+00    6.2190000000000012E+00    2.4159000000000002E+01
Au    2.0730000000000000E+00    0.0000000000000000E+00    2.4159000000000002E+01
Au    2.0730000000000000E+00    4.1459999999999999E+00    2.4159000000000002E+01
Au    4.1459999999999999E+00    2.0730000000000000E+00    2.4159000000000002E+01
Au    4.1459999999999999E+00    6.2190000000000012E+00    2.4159000000000002E+01
Au    6.2190000000000012E+00    0.0000000000000000E+00    2.4159000000000002E+01
Au    6.2190000000000012E+00    4.1459999999999999E+00    2.4159000000000002E+01
Au    0.0000000000000000E+00    0.0000000000000000E+00    2.6231999999999999E+01
Au    0.0000000000000000E+00    4.1459999999999999E+00    2.6231999999999999E+01
Au    2.0730000000000000E+00    2.0730000000000000E+00    2.6231999999999999E+01
Au    2.0730000000000000E+00    6.2190000000000012E+00    2.6231999999999999E+01
Au    4.1459999999999999E+00    0.0000000000000000E+00    2.6231999999999999E+01
Au    4.1459999999999999E+00    4.1459999999999999E+00    2.6231999999999999E+01
Au    6.2190000000000012E+00    2.0730000000000000E+00    2.6231999999999999E+01
Au    6.2190000000000012E+00    6.2190000000000012E+00    2.6231999999999999E+01
Au    0.0000000000000000E+00    2.0730000000000000E+00    2.8305000000000003E+01
Au    0.0000000000000000E+00    6.2190000000000012E+00    2.8305000000000003E+01
Au    2.0730000000000000E+00    0.0000000000000000E+00    2.8305000000000003E+01
Au    2.0730000000000000E+00    4.1459999999999999E+00    2.8305000000000003E+01
Au    4.1459999999999999E+00    2.0730000000000000E+00    2.8305000000000003E+01
Au    4.1459999999999999E+00    6.2190000000000012E+00    2.8305000000000003E+01
Au    6.2190000000000012E+00    0.0000000000000000E+00    2.8305000000000003E+01
Au    6.2190000000000012E+00    4.1459999999999999E+00    2.8305000000000003E+01
Au    0.0000000000000000E+00    0.0000000000000000E+00    3.0378000000000000E+01
Au    0.0000000000000000E+00    4.1459999999999999E+00    3.0378000000000000E+01
Au    2.0730000000000000E+00    2.0730000000000000E+00    3.0378000000000000E+01
Au    2.0730000000000000E+00    6.2190000000000012E+00    3.0378000000000000E+01
Au    4.1459999999999999E+00    0.0000000000000000E+00    3.0378000000000000E+01
Au    4.1459999999999999E+00    4.1459999999999999E+00    3.0378000000000000E+01
Au    6.2190000000000012E+00    2.0730000000000000E+00    3.0378000000000000E+01
Au    6.2190000000000012E+00    6.2190000000000012E+00    3.0378000000000000E+01
Au    0.0000000000000000E+00    2.0730000000000000E+00    3.2451000000000001E+01
Au    0.0000000000000000E+00    6.2190000000000012E+00    3.2451000000000001E+01
Au    2.0730000000000000E+00    0.0000000000000000E+00    3.2451000000000001E+01
Au    2.0730000000000000E+00    4.1459999999999999E+00    3.2451000000000001E+01
Au    4.1459999999999999E+00    2.0730000000000000E+00    3.2451000000000001E+01
Au    4.1459999999999999E+00    6.2190000000000012E+00    3.2451000000000001E+01
Au    6.2190000000000012E+00    0.0000000000000000E+00    3.2451000000000001E+01
Au    6.2190000000000012E+00    4.1459999999999999E+00    3.2451000000000001E+01
     &END COORD
     &KIND Au
       BASIS_SET SZV-MOLOPT-SR-GTH
       POTENTIAL GTH-PADE-q11
       &POTENTIAL
 1 0 10
  0.5900000000000000E+00 1  0.1160442790000000E+02
 3
  0.5211797500000001E+00 2  0.2538613590000000E+01 -0.1046136640000000E+01
  0.2701113200000000E+01
  0.6306130599999999E+00 2  0.3948527000000000E+00 -0.8695921300000000E+00
  0.2057830560000000E+01
  0.4407064300000000E+00 2 -0.4719069660000000E+01  0.7277708100000000E+00
 -0.1650429070000000E+01
         # Potential name:  GTH-PADE-Q11  for symbol:  AU
         # Potential read from the potential filename: GTH_POTENTIALS
       &END POTENTIAL
     &END KIND
     &KIND C
       BASIS_SET SZV-MOLOPT-SR-GTH
       ELEMENT C
       POTENTIAL GTH-PADE-q4
       &POTENTIAL
 2 2
  0.3488304500000000E+00 2 -0.8513771100000000E+01  0.1228432030000000E+01
 2
  0.3045532100000000E+00 1  0.9522841789999999E+01
  0.2326773000000000E+00 0
         # Potential name:  GTH-PADE-Q4  for symbol:  C
         # Potential read from the potential filename: GTH_POTENTIALS
       &END POTENTIAL
     &END KIND
     &KIND S
       BASIS_SET SZV-MOLOPT-SR-GTH
       ELEMENT S
       POTENTIAL GTH-PADE-q6
       &POTENTIAL
 2 4
  0.4200000000000000E+00 1 -0.6554491840000000E+01
 2
  0.3617566500000000E+00 2  0.7905302500000000E+01 -0.1731881300000000E+01
  0.4471698300000000E+01
  0.4052850200000000E+00 1  0.3866579000000000E+01
         # Potential name:  GTH-PADE-Q6  for symbol:  S
         # Potential read from the potential filename: GTH_POTENTIALS
       &END POTENTIAL
     &END KIND
     &KIND H
       BASIS_SET SZV-MOLOPT-SR-GTH
       ELEMENT H
       POTENTIAL GTH-PADE-q1
       &POTENTIAL
 1
  0.2000000000000000E+00 2 -0.4180236800000000E+01  0.7250748200000000E+00
 0
         # Potential name:  GTH-PADE-Q1  for symbol:  H
         # Potential read from the potential filename: GTH_POTENTIALS
       &END POTENTIAL
     &END KIND
     &TOPOLOGY
       COORD_FILE_NAME em.xyz
       COORD_FILE_FORMAT  XYZ
       NUMBER_OF_ATOMS  116
       MULTIPLE_UNIT_CELL  1 1 1
     &END TOPOLOGY
   &END SUBSYS
 &END FORCE_EVAL
