 # Version information for this restart file 
 # current date 2023-02-21 21:34:53.421
 # current working dir /work4/scd/scarf1157/work/testing/cp2k-smeagol/bdt/cp2k/hollow-site/transport-cp2k/5-4/geometry-ordered/3x3-4/sz/bulk_layers-4/geo_opt/Au-S-2.4_dft
 # Program compiled at                              Thu 26 Jan 13:39:53 GMT 2023
 # Program compiled on                                     cn1108.scarf.rl.ac.uk
 # Program compiled for                                                    local
 # Source code revision number                                       git:1ef701d
 &GLOBAL
   EXTENDED_FFT_LENGTHS  T
   PRINT_LEVEL  MEDIUM
   PROJECT_NAME dft_wfn
   RUN_TYPE  GEO_OPT
 &END GLOBAL
 &MOTION
   &GEO_OPT
     OPTIMIZER  BFGS
     MAX_ITER  1000
     STEP_START_VAL  17
   &END GEO_OPT
   &CONSTRAINT
     &FIXED_ATOMS
       LIST  1..40 76..116
     &END FIXED_ATOMS
   &END CONSTRAINT
   &PRINT
     &TRAJECTORY  ON
       FORMAT  XMOL
     &END TRAJECTORY
   &END PRINT
 &END MOTION
 &FORCE_EVAL
   METHOD  QS
   &DFT
     BASIS_SET_FILE_NAME BASIS_MOLOPT
     POTENTIAL_FILE_NAME GTH_POTENTIALS
     &SCF
       MAX_SCF  100
       EPS_SCF     9.9999999999999995E-08
       SCF_GUESS  ATOMIC
       ADDED_MOS  100
       &SMEAR  T
         METHOD  FERMI_DIRAC
         ELECTRONIC_TEMPERATURE     2.9300000000000000E+02
       &END SMEAR
       &MIXING  T
         METHOD  BROYDEN_MIXING
         ALPHA     2.9999999999999999E-01
         NBUFFER  8
       &END MIXING
       &PRINT
         &RESTART  SILENT
           FILENAME RESTART_0
         &END RESTART
       &END PRINT
     &END SCF
     &MGRID
       CUTOFF     4.0000000000000000E+02
     &END MGRID
     &XC
       DENSITY_CUTOFF     1.0000000000000000E-10
       GRADIENT_CUTOFF     1.0000000000000000E-10
       TAU_CUTOFF     1.0000000000000000E-10
       &XC_FUNCTIONAL  NO_SHORTCUT
         &PADE  T
         &END PADE
       &END XC_FUNCTIONAL
     &END XC
     &POISSON
       PERIODIC  XYZ
     &END POISSON
     &KPOINTS
       SCHEME MONKHORST-PACK 2 2 1
       SYMMETRY  F
       FULL_GRID  T
       VERBOSE  T
       EPS_GEO     1.0000000000000000E-08
       PARALLEL_GROUP_SIZE  0
     &END KPOINTS
     &PRINT
       &E_DENSITY_CUBE  ON
         STRIDE  2 2 2
       &END E_DENSITY_CUBE
       &V_HARTREE_CUBE  SILENT
         STRIDE  2 2 2
       &END V_HARTREE_CUBE
       &HIRSHFELD  SILENT
         SHAPE_FUNCTION  DENSITY
       &END HIRSHFELD
     &END PRINT
   &END DFT
   &SUBSYS
     &CELL
       A     8.2919999999999998E+00    0.0000000000000000E+00    0.0000000000000000E+00
       B     0.0000000000000000E+00    8.2919999999999998E+00    0.0000000000000000E+00
       C     0.0000000000000000E+00    0.0000000000000000E+00    3.3642000000000003E+01
       PERIODIC  XYZ
       MULTIPLE_UNIT_CELL  1 1 1
     &END CELL
     &COORD
Au    0.0000000000000000E+00    0.0000000000000000E+00    0.0000000000000000E+00
Au    0.0000000000000000E+00    4.1459999999999999E+00    0.0000000000000000E+00
Au    2.0730000000000000E+00    2.0730000000000000E+00    0.0000000000000000E+00
Au    2.0730000000000000E+00    6.2190000000000012E+00    0.0000000000000000E+00
Au    4.1459999999999999E+00    0.0000000000000000E+00    0.0000000000000000E+00
Au    4.1459999999999999E+00    4.1459999999999999E+00    0.0000000000000000E+00
Au    6.2190000000000012E+00    2.0730000000000000E+00    0.0000000000000000E+00
Au    6.2190000000000012E+00    6.2190000000000012E+00    0.0000000000000000E+00
Au    0.0000000000000000E+00    2.0730000000000000E+00    2.0730000000000000E+00
Au    0.0000000000000000E+00    6.2190000000000012E+00    2.0730000000000000E+00
Au    2.0730000000000000E+00    0.0000000000000000E+00    2.0730000000000000E+00
Au    2.0730000000000000E+00    4.1459999999999999E+00    2.0730000000000000E+00
Au    4.1459999999999999E+00    2.0730000000000000E+00    2.0730000000000000E+00
Au    4.1459999999999999E+00    6.2190000000000012E+00    2.0730000000000000E+00
Au    6.2190000000000012E+00    0.0000000000000000E+00    2.0730000000000000E+00
Au    6.2190000000000012E+00    4.1459999999999999E+00    2.0730000000000000E+00
Au    0.0000000000000000E+00    0.0000000000000000E+00    4.1459999999999999E+00
Au    0.0000000000000000E+00    4.1459999999999999E+00    4.1459999999999999E+00
Au    2.0730000000000000E+00    2.0730000000000000E+00    4.1459999999999999E+00
Au    2.0730000000000000E+00    6.2190000000000012E+00    4.1459999999999999E+00
Au    4.1459999999999999E+00    0.0000000000000000E+00    4.1459999999999999E+00
Au    4.1459999999999999E+00    4.1459999999999999E+00    4.1459999999999999E+00
Au    6.2190000000000012E+00    2.0730000000000000E+00    4.1459999999999999E+00
Au    6.2190000000000012E+00    6.2190000000000012E+00    4.1459999999999999E+00
Au    0.0000000000000000E+00    2.0730000000000000E+00    6.2190000000000012E+00
Au    0.0000000000000000E+00    6.2190000000000012E+00    6.2190000000000012E+00
Au    2.0730000000000000E+00    0.0000000000000000E+00    6.2190000000000012E+00
Au    2.0730000000000000E+00    4.1459999999999999E+00    6.2190000000000012E+00
Au    4.1459999999999999E+00    2.0730000000000000E+00    6.2190000000000012E+00
Au    4.1459999999999999E+00    6.2190000000000012E+00    6.2190000000000012E+00
Au    6.2190000000000012E+00    0.0000000000000000E+00    6.2190000000000012E+00
Au    6.2190000000000012E+00    4.1459999999999999E+00    6.2190000000000012E+00
Au    0.0000000000000000E+00    0.0000000000000000E+00    8.2919999999999998E+00
Au    0.0000000000000000E+00    4.1459999999999999E+00    8.2919999999999998E+00
Au    2.0730000000000000E+00    2.0730000000000000E+00    8.2919999999999998E+00
Au    2.0730000000000000E+00    6.2190000000000012E+00    8.2919999999999998E+00
Au    4.1459999999999999E+00    0.0000000000000000E+00    8.2919999999999998E+00
Au    4.1459999999999999E+00    4.1459999999999999E+00    8.2919999999999998E+00
Au    6.2190000000000012E+00    2.0730000000000000E+00    8.2919999999999998E+00
Au    6.2190000000000012E+00    6.2190000000000012E+00    8.2919999999999998E+00
Au   -5.9099692323585115E-04    2.0742148718934419E+00    1.0318523936246640E+01
Au    4.3758780613674446E-04    6.2179021930275562E+00    1.0330232515587712E+01
Au    2.0839179195962352E+00    2.2732162261505422E-02    1.0393561737597265E+01
Au    2.0861296282313679E+00    4.1231828032712912E+00    1.0396456900814774E+01
Au    4.1461313508392017E+00    2.0730119318289719E+00    1.0308872393044368E+01
Au    4.1459690958686837E+00    6.2201788822837498E+00    1.0292665696116600E+01
Au    6.2088387338178235E+00    2.1835723696305653E-02    1.0392736258476624E+01
Au    6.2065928975677087E+00    4.1240457859813811E+00    1.0395660660258685E+01
Au   -1.0020554669392834E-03   -7.7061325690262750E-02    1.2478013227075632E+01
Au   -1.0509301334078235E-03    4.2240251670814475E+00    1.2477954657051312E+01
Au    1.8240545736575922E+00    2.0711661246708455E+00    1.2472884655254049E+01
Au    1.9832724349812014E+00    6.2221085069846058E+00    1.2464601283252236E+01
Au    4.1478658384044973E+00   -2.5120762391851054E-01    1.2427197286872042E+01
Au    4.1478560215422107E+00    4.4096924089036174E+00    1.2431594746168731E+01
Au    6.4641103616053153E+00    2.0711044531285947E+00    1.2472859427383627E+01
Au    6.3094490551226388E+00    6.2221361415957022E+00    1.2467689852515054E+01
S    4.1415320744948270E+00    2.0845654753435632E+00    1.3631729316645787E+01
C    4.1423401107856117E+00    2.0817578129863743E+00    1.5417024051917290E+01
H    1.9826767139797219E+00    2.0802081150622205E+00    1.5530052093490337E+01
H    6.3025755969629857E+00    2.0806100783661110E+00    1.5528155895552379E+01
C    2.9133478546746572E+00    2.0794723186824786E+00    1.6088752266806122E+01
C    5.3721548454931778E+00    2.0797957175988198E+00    1.6087266971517099E+01
C    2.9138325548549409E+00    2.0756101564981049E+00    1.7482968214497987E+01
C    5.3733520408315236E+00    2.0757768376979642E+00    1.7481494736161874E+01
H    1.9831617210660917E+00    2.0733410708462685E+00    1.8041132778588960E+01
H    6.3041178747137048E+00    2.0737329908605129E+00    1.8039274259292739E+01
C    4.1440799615873498E+00    2.0740252802391517E+00    1.8152960817256201E+01
S    4.1452830713727389E+00    2.0710010336399414E+00    1.9937391032997127E+01
Au   -2.3173114986749330E-02   -8.1298337906439047E-02    2.1157727887809010E+01
Au   -2.4109629417614725E-02    4.2271478208226769E+00    2.1157261207047586E+01
Au    1.8368430778738902E+00    2.0737500198595180E+00    2.1164699770341372E+01
Au    1.9737691511711011E+00    6.2179620035469299E+00    2.1149970279709652E+01
Au    4.1011486007455913E+00   -2.0300749384721450E-01    2.1202014434071259E+01
Au    4.1020366465196290E+00    4.3472243926058454E+00    2.1202383834777635E+01
Au    6.4275156511122056E+00    2.0729032221795838E+00    2.1176935843130167E+01
Au    6.2190000000000012E+00    6.2190000000000012E+00    2.1204000000000004E+01
Au    0.0000000000000000E+00    2.0730000000000000E+00    2.3277000000000001E+01
Au    0.0000000000000000E+00    6.2190000000000012E+00    2.3277000000000001E+01
Au    2.0730000000000000E+00    0.0000000000000000E+00    2.3277000000000001E+01
Au    2.0730000000000000E+00    4.1459999999999999E+00    2.3277000000000001E+01
Au    4.1459999999999999E+00    2.0730000000000000E+00    2.3277000000000001E+01
Au    4.1459999999999999E+00    6.2190000000000012E+00    2.3277000000000001E+01
Au    6.2190000000000012E+00    0.0000000000000000E+00    2.3277000000000001E+01
Au    6.2190000000000012E+00    4.1459999999999999E+00    2.3277000000000001E+01
Au    0.0000000000000000E+00    0.0000000000000000E+00    2.5350000000000001E+01
Au    0.0000000000000000E+00    4.1459999999999999E+00    2.5350000000000001E+01
Au    2.0730000000000000E+00    2.0730000000000000E+00    2.5350000000000001E+01
Au    2.0730000000000000E+00    6.2190000000000012E+00    2.5350000000000001E+01
Au    4.1459999999999999E+00    0.0000000000000000E+00    2.5350000000000001E+01
Au    4.1459999999999999E+00    4.1459999999999999E+00    2.5350000000000001E+01
Au    6.2190000000000012E+00    2.0730000000000000E+00    2.5350000000000001E+01
Au    6.2190000000000012E+00    6.2190000000000012E+00    2.5350000000000001E+01
Au    0.0000000000000000E+00    2.0730000000000000E+00    2.7423000000000002E+01
Au    0.0000000000000000E+00    6.2190000000000012E+00    2.7423000000000002E+01
Au    2.0730000000000000E+00    0.0000000000000000E+00    2.7423000000000002E+01
Au    2.0730000000000000E+00    4.1459999999999999E+00    2.7423000000000002E+01
Au    4.1459999999999999E+00    2.0730000000000000E+00    2.7423000000000002E+01
Au    4.1459999999999999E+00    6.2190000000000012E+00    2.7423000000000002E+01
Au    6.2190000000000012E+00    0.0000000000000000E+00    2.7423000000000002E+01
Au    6.2190000000000012E+00    4.1459999999999999E+00    2.7423000000000002E+01
Au    0.0000000000000000E+00    0.0000000000000000E+00    2.9495999999999999E+01
Au    0.0000000000000000E+00    4.1459999999999999E+00    2.9495999999999999E+01
Au    2.0730000000000000E+00    2.0730000000000000E+00    2.9495999999999999E+01
Au    2.0730000000000000E+00    6.2190000000000012E+00    2.9495999999999999E+01
Au    4.1459999999999999E+00    0.0000000000000000E+00    2.9495999999999999E+01
Au    4.1459999999999999E+00    4.1459999999999999E+00    2.9495999999999999E+01
Au    6.2190000000000012E+00    2.0730000000000000E+00    2.9495999999999999E+01
Au    6.2190000000000012E+00    6.2190000000000012E+00    2.9495999999999999E+01
Au    0.0000000000000000E+00    2.0730000000000000E+00    3.1569000000000003E+01
Au    0.0000000000000000E+00    6.2190000000000012E+00    3.1569000000000003E+01
Au    2.0730000000000000E+00    0.0000000000000000E+00    3.1569000000000003E+01
Au    2.0730000000000000E+00    4.1459999999999999E+00    3.1569000000000003E+01
Au    4.1459999999999999E+00    2.0730000000000000E+00    3.1569000000000003E+01
Au    4.1459999999999999E+00    6.2190000000000012E+00    3.1569000000000003E+01
Au    6.2190000000000012E+00    0.0000000000000000E+00    3.1569000000000003E+01
Au    6.2190000000000012E+00    4.1459999999999999E+00    3.1569000000000003E+01
     &END COORD
     &KIND Au
       BASIS_SET SZV-MOLOPT-SR-GTH
       POTENTIAL GTH-PADE-q11
       &POTENTIAL
 1 0 10
  0.5900000000000000E+00 1  0.1160442790000000E+02
 3
  0.5211797500000001E+00 2  0.2538613590000000E+01 -0.1046136640000000E+01
  0.2701113200000000E+01
  0.6306130599999999E+00 2  0.3948527000000000E+00 -0.8695921300000000E+00
  0.2057830560000000E+01
  0.4407064300000000E+00 2 -0.4719069660000000E+01  0.7277708100000000E+00
 -0.1650429070000000E+01
         # Potential name:  GTH-PADE-Q11  for symbol:  AU
         # Potential read from the potential filename: GTH_POTENTIALS
       &END POTENTIAL
     &END KIND
     &KIND C
       BASIS_SET SZV-MOLOPT-SR-GTH
       ELEMENT C
       POTENTIAL GTH-PADE-q4
       &POTENTIAL
 2 2
  0.3488304500000000E+00 2 -0.8513771100000000E+01  0.1228432030000000E+01
 2
  0.3045532100000000E+00 1  0.9522841789999999E+01
  0.2326773000000000E+00 0
         # Potential name:  GTH-PADE-Q4  for symbol:  C
         # Potential read from the potential filename: GTH_POTENTIALS
       &END POTENTIAL
     &END KIND
     &KIND S
       BASIS_SET SZV-MOLOPT-SR-GTH
       ELEMENT S
       POTENTIAL GTH-PADE-q6
       &POTENTIAL
 2 4
  0.4200000000000000E+00 1 -0.6554491840000000E+01
 2
  0.3617566500000000E+00 2  0.7905302500000000E+01 -0.1731881300000000E+01
  0.4471698300000000E+01
  0.4052850200000000E+00 1  0.3866579000000000E+01
         # Potential name:  GTH-PADE-Q6  for symbol:  S
         # Potential read from the potential filename: GTH_POTENTIALS
       &END POTENTIAL
     &END KIND
     &KIND H
       BASIS_SET SZV-MOLOPT-SR-GTH
       ELEMENT H
       POTENTIAL GTH-PADE-q1
       &POTENTIAL
 1
  0.2000000000000000E+00 2 -0.4180236800000000E+01  0.7250748200000000E+00
 0
         # Potential name:  GTH-PADE-Q1  for symbol:  H
         # Potential read from the potential filename: GTH_POTENTIALS
       &END POTENTIAL
     &END KIND
     &TOPOLOGY
       COORD_FILE_NAME em.xyz
       COORD_FILE_FORMAT  XYZ
       NUMBER_OF_ATOMS  116
       MULTIPLE_UNIT_CELL  1 1 1
     &END TOPOLOGY
   &END SUBSYS
 &END FORCE_EVAL
