SystemName		    Bulk transport		# Descriptive name of the system
SystemLabel 			bulk		# Short name for naming files
NumberOfAtoms    bulk_atoms
NumberOfSpecies			1               # Number of species

PAO.BasisType			split		# Type of basis ('nones', 'nonodes', 'split')

%block ChemicalSpeciesLabel
5 79 Au_bulk
%endblock ChemicalSpeciesLabel

%block PAO.Basis
  Au_bulk  2
n=6  0  1
6.500
1.00
n=5  2  1
5.850
1.00
%endblock PAO.Basis

%block PS.lmax
 Au_bulk   3
%endblock PS.lmax

LatticeConstant 1.000 Ang

%block LatticeVectors
  14.582      0.000   0.000	  1
  0.000  8.866   0.000   1
  0.000   0.000      8.3600  1
%endblock LatticeVectors

AtomicCoordinatesFormat Ang

%block AtomicCoordinatesAndAtomicSpecies
bulk_struct
%endblock AtomicCoordinatesAndAtomicSpecies 	 
                                              
%block kgrid_Monkhorst_Pack
  K_REPLACE_EM_X   0   0     0.0 
  0   K_REPLACE_EM_Y   0     0.0
  0   0   K_REPLACE_BULK    0.0
%endblock kgrid_Monkhorst_Pack

xc.functional		LDA		# 'LDA', 'GGA'
xc.authors 	 		CA		# 'CA'='PZ', 'PW92', 'PBE'
SpinPolarized			F		# 'T', 'F'		
#FixSpin           F
#TotalSpin        0.0    

NonCollinearSpin		F		# 'T', 'F'
MeshCutoff 	 		    200 Ry		# Equivalent plane wave cutoff for the grid
MaxSCFIterations		10000

DM.MixingWeight			0.1
DM.NumberPulay			4	# Pulay convergency accelerator

DM.PulayOnFile			F		# Store in memory ('F') or in files ('T')
#DM.NumberKick         30
#DM.KickMixingWeight   0.1
DM.Tolerance 		0.5E-5
NeglNonOverlapInt		F		# 'F'=do not neglect

SolutionMethod			diagon
ElectronicTemperature		300 K		# Default value

DM.UseSaveDM 			T

#MD.UseSaveXV			T
#MD.UseSaveCG			T

WriteForces      T
WriteCoorXmol			T		# Write Atoms coordinates

SaveElectrostaticPotential      T
#SaveHS				T		# Save the Hamiltonian and Overlap matrices
SaveRho				T		# Save the valence pseudocharge density
#SaveDeltaRho			T
#WriteDenchar			T		# Write Denchar output
WriteMullikenPop		1 #write mulliken population of aromic and orbital charges


#-----
#smeagol

#-----



BulkTransport			T
BulkLeads			LR

