 # Version information for this restart file 
 # current date 2023-02-22 11:33:44.749
 # current working dir /work4/scd/scarf1157/work/testing/cp2k-smeagol/bdt/cp2k/hollow-site/transport-cp2k/5-4/geometry-ordered/3x3-4/sz/bulk_layers-4/geo_opt/dzvp/Au-S-2.7_dft_cg
 # Program compiled at                              Thu 26 Jan 13:39:53 GMT 2023
 # Program compiled on                                     cn1108.scarf.rl.ac.uk
 # Program compiled for                                                    local
 # Source code revision number                                       git:1ef701d
 &GLOBAL
   EXTENDED_FFT_LENGTHS  T
   PRINT_LEVEL  MEDIUM
   PROJECT_NAME dft_wfn
   RUN_TYPE  GEO_OPT
 &END GLOBAL
 &MOTION
   &GEO_OPT
     OPTIMIZER  CG
     MAX_ITER  1000
     STEP_START_VAL  4
   &END GEO_OPT
   &CONSTRAINT
     &FIXED_ATOMS
       LIST  1..40 76..116
     &END FIXED_ATOMS
   &END CONSTRAINT
   &PRINT
     &TRAJECTORY  ON
       FORMAT  XMOL
     &END TRAJECTORY
   &END PRINT
 &END MOTION
 &FORCE_EVAL
   METHOD  QS
   &DFT
     BASIS_SET_FILE_NAME BASIS_MOLOPT
     POTENTIAL_FILE_NAME GTH_POTENTIALS
     &SCF
       MAX_SCF  100
       EPS_SCF     9.9999999999999995E-08
       SCF_GUESS  ATOMIC
       ADDED_MOS  100
       &SMEAR  T
         METHOD  FERMI_DIRAC
         ELECTRONIC_TEMPERATURE     2.9300000000000000E+02
       &END SMEAR
       &MIXING  T
         METHOD  BROYDEN_MIXING
         ALPHA     2.9999999999999999E-01
         NBUFFER  8
       &END MIXING
       &PRINT
         &RESTART  SILENT
           FILENAME RESTART_0
         &END RESTART
       &END PRINT
     &END SCF
     &MGRID
       CUTOFF     4.0000000000000000E+02
     &END MGRID
     &XC
       DENSITY_CUTOFF     1.0000000000000000E-10
       GRADIENT_CUTOFF     1.0000000000000000E-10
       TAU_CUTOFF     1.0000000000000000E-10
       &XC_FUNCTIONAL  NO_SHORTCUT
         &PADE  T
         &END PADE
       &END XC_FUNCTIONAL
     &END XC
     &POISSON
       PERIODIC  XYZ
     &END POISSON
     &KPOINTS
       SCHEME MONKHORST-PACK 2 2 1
       SYMMETRY  F
       FULL_GRID  T
       VERBOSE  T
       EPS_GEO     1.0000000000000000E-08
       PARALLEL_GROUP_SIZE  0
     &END KPOINTS
     &PRINT
       &E_DENSITY_CUBE  ON
         STRIDE  2 2 2
       &END E_DENSITY_CUBE
       &V_HARTREE_CUBE  SILENT
         STRIDE  2 2 2
       &END V_HARTREE_CUBE
       &HIRSHFELD  SILENT
         SHAPE_FUNCTION  DENSITY
       &END HIRSHFELD
     &END PRINT
   &END DFT
   &SUBSYS
     &CELL
       A     8.2919999999999998E+00    0.0000000000000000E+00    0.0000000000000000E+00
       B     0.0000000000000000E+00    8.2919999999999998E+00    0.0000000000000000E+00
       C     0.0000000000000000E+00    0.0000000000000000E+00    3.4683000000000007E+01
       PERIODIC  XYZ
       MULTIPLE_UNIT_CELL  1 1 1
     &END CELL
     &COORD
Au    0.0000000000000000E+00    0.0000000000000000E+00    0.0000000000000000E+00
Au    0.0000000000000000E+00    4.1459999999999999E+00    0.0000000000000000E+00
Au    2.0730000000000000E+00    2.0730000000000000E+00    0.0000000000000000E+00
Au    2.0730000000000000E+00    6.2190000000000012E+00    0.0000000000000000E+00
Au    4.1459999999999999E+00    0.0000000000000000E+00    0.0000000000000000E+00
Au    4.1459999999999999E+00    4.1459999999999999E+00    0.0000000000000000E+00
Au    6.2190000000000012E+00    2.0730000000000000E+00    0.0000000000000000E+00
Au    6.2190000000000012E+00    6.2190000000000012E+00    0.0000000000000000E+00
Au    0.0000000000000000E+00    2.0730000000000000E+00    2.0730000000000000E+00
Au    0.0000000000000000E+00    6.2190000000000012E+00    2.0730000000000000E+00
Au    2.0730000000000000E+00    0.0000000000000000E+00    2.0730000000000000E+00
Au    2.0730000000000000E+00    4.1459999999999999E+00    2.0730000000000000E+00
Au    4.1459999999999999E+00    2.0730000000000000E+00    2.0730000000000000E+00
Au    4.1459999999999999E+00    6.2190000000000012E+00    2.0730000000000000E+00
Au    6.2190000000000012E+00    0.0000000000000000E+00    2.0730000000000000E+00
Au    6.2190000000000012E+00    4.1459999999999999E+00    2.0730000000000000E+00
Au    0.0000000000000000E+00    0.0000000000000000E+00    4.1459999999999999E+00
Au    0.0000000000000000E+00    4.1459999999999999E+00    4.1459999999999999E+00
Au    2.0730000000000000E+00    2.0730000000000000E+00    4.1459999999999999E+00
Au    2.0730000000000000E+00    6.2190000000000012E+00    4.1459999999999999E+00
Au    4.1459999999999999E+00    0.0000000000000000E+00    4.1459999999999999E+00
Au    4.1459999999999999E+00    4.1459999999999999E+00    4.1459999999999999E+00
Au    6.2190000000000012E+00    2.0730000000000000E+00    4.1459999999999999E+00
Au    6.2190000000000012E+00    6.2190000000000012E+00    4.1459999999999999E+00
Au    0.0000000000000000E+00    2.0730000000000000E+00    6.2190000000000012E+00
Au    0.0000000000000000E+00    6.2190000000000012E+00    6.2190000000000012E+00
Au    2.0730000000000000E+00    0.0000000000000000E+00    6.2190000000000012E+00
Au    2.0730000000000000E+00    4.1459999999999999E+00    6.2190000000000012E+00
Au    4.1459999999999999E+00    2.0730000000000000E+00    6.2190000000000012E+00
Au    4.1459999999999999E+00    6.2190000000000012E+00    6.2190000000000012E+00
Au    6.2190000000000012E+00    0.0000000000000000E+00    6.2190000000000012E+00
Au    6.2190000000000012E+00    4.1459999999999999E+00    6.2190000000000012E+00
Au    0.0000000000000000E+00    0.0000000000000000E+00    8.2919999999999998E+00
Au    0.0000000000000000E+00    4.1459999999999999E+00    8.2919999999999998E+00
Au    2.0730000000000000E+00    2.0730000000000000E+00    8.2919999999999998E+00
Au    2.0730000000000000E+00    6.2190000000000012E+00    8.2919999999999998E+00
Au    4.1459999999999999E+00    0.0000000000000000E+00    8.2919999999999998E+00
Au    4.1459999999999999E+00    4.1459999999999999E+00    8.2919999999999998E+00
Au    6.2190000000000012E+00    2.0730000000000000E+00    8.2919999999999998E+00
Au    6.2190000000000012E+00    6.2190000000000012E+00    8.2919999999999998E+00
Au    4.5904744824464305E-05    2.0730303420757763E+00    1.0379188587185331E+01
Au   -1.1019728708609684E-06    6.2189509045895246E+00    1.0356903622843646E+01
Au    2.0748627613610986E+00    3.9524734884929689E-03    1.0358776201467975E+01
Au    2.0748963618257767E+00    4.1421651908480248E+00    1.0358681482783000E+01
Au    4.1460257036385997E+00    2.0728847587990078E+00    1.0336780261906490E+01
Au    4.1459841179313610E+00    6.2185333276771040E+00    1.0375908084462836E+01
Au    6.2171240164647976E+00    3.9603886382355803E-03    1.0358806712491424E+01
Au    6.2170914540186848E+00    4.1421577236866165E+00    1.0358710540967330E+01
Au    5.8432753253483692E-06   -1.4376898608679009E-02    1.2444662555794075E+01
Au    6.9748222026208332E-06    4.1605261034966334E+00    1.2444767307929043E+01
Au    2.0066685292359834E+00    2.0729756246692537E+00    1.2469288049448583E+01
Au    2.0573162776100138E+00    6.2189956637605315E+00    1.2444578690053241E+01
Au    4.1459993255126824E+00   -7.2285394627534916E-02    1.2457252354055752E+01
Au    4.1460007878186991E+00    4.2171482330569070E+00    1.2458656575594654E+01
Au    6.2855073568544473E+00    2.0729770096928219E+00    1.2469154594723745E+01
Au    6.2346665148047027E+00    6.2189968422828104E+00    1.2444592682715744E+01
S    4.1457732124149826E+00    2.0784128317734241E+00    1.4166907068809415E+01
C    4.1439161555078234E+00    2.0852565842185689E+00    1.5946109782303353E+01
H    1.9895934456438413E+00    2.0948604688428856E+00    1.6092713048151673E+01
H    6.2950017134548117E+00    2.0947342974558296E+00    1.6103915736616948E+01
C    2.9295768218056857E+00    2.0802170925071319E+00    1.6646546905100898E+01
C    5.3574673508040709E+00    2.0803558434051794E+00    1.6647325132723783E+01
C    2.9240654565002862E+00    2.0638690574823677E+00    1.8035624430879484E+01
C    5.3520975146968919E+00    2.0639791033910142E+00    1.8036505285156796E+01
H    1.9869364011853348E+00    2.0493152074209853E+00    1.8578712019965963E+01
H    6.2919019112622996E+00    2.0491580927076987E+00    1.8590074748762479E+01
C    4.1376445317971093E+00    2.0593212054793897E+00    1.8735923774450686E+01
S    4.1409430482763057E+00    2.0671292655835978E+00    2.0514808488731514E+01
Au   -2.6281367754247024E-04   -1.2741150777144477E-02    2.2237717600830166E+01
Au   -2.6440627697461194E-04    4.1585605557694381E+00    2.2237821593318625E+01
Au    2.0036818300836075E+00    2.0731021440717776E+00    2.2211669171543559E+01
Au    2.0589963591869633E+00    6.2189701147069218E+00    2.2237452109234400E+01
Au    4.1457414179209895E+00   -7.3780111072054372E-02    2.2222377821514780E+01
Au    4.1457422228030998E+00    4.2209582533975079E+00    2.2223921341745751E+01
Au    6.2890730944618793E+00    2.0731038315213057E+00    2.2213033768607946E+01
Au    6.2190000000000012E+00    6.2190000000000012E+00    2.2245000000000005E+01
Au    0.0000000000000000E+00    2.0730000000000000E+00    2.4318000000000001E+01
Au    0.0000000000000000E+00    6.2190000000000012E+00    2.4318000000000001E+01
Au    2.0730000000000000E+00    0.0000000000000000E+00    2.4318000000000001E+01
Au    2.0730000000000000E+00    4.1459999999999999E+00    2.4318000000000001E+01
Au    4.1459999999999999E+00    2.0730000000000000E+00    2.4318000000000001E+01
Au    4.1459999999999999E+00    6.2190000000000012E+00    2.4318000000000001E+01
Au    6.2190000000000012E+00    0.0000000000000000E+00    2.4318000000000001E+01
Au    6.2190000000000012E+00    4.1459999999999999E+00    2.4318000000000001E+01
Au    0.0000000000000000E+00    0.0000000000000000E+00    2.6391000000000002E+01
Au    0.0000000000000000E+00    4.1459999999999999E+00    2.6391000000000002E+01
Au    2.0730000000000000E+00    2.0730000000000000E+00    2.6391000000000002E+01
Au    2.0730000000000000E+00    6.2190000000000012E+00    2.6391000000000002E+01
Au    4.1459999999999999E+00    0.0000000000000000E+00    2.6391000000000002E+01
Au    4.1459999999999999E+00    4.1459999999999999E+00    2.6391000000000002E+01
Au    6.2190000000000012E+00    2.0730000000000000E+00    2.6391000000000002E+01
Au    6.2190000000000012E+00    6.2190000000000012E+00    2.6391000000000002E+01
Au    0.0000000000000000E+00    2.0730000000000000E+00    2.8464000000000002E+01
Au    0.0000000000000000E+00    6.2190000000000012E+00    2.8464000000000002E+01
Au    2.0730000000000000E+00    0.0000000000000000E+00    2.8464000000000002E+01
Au    2.0730000000000000E+00    4.1459999999999999E+00    2.8464000000000002E+01
Au    4.1459999999999999E+00    2.0730000000000000E+00    2.8464000000000002E+01
Au    4.1459999999999999E+00    6.2190000000000012E+00    2.8464000000000002E+01
Au    6.2190000000000012E+00    0.0000000000000000E+00    2.8464000000000002E+01
Au    6.2190000000000012E+00    4.1459999999999999E+00    2.8464000000000002E+01
Au    0.0000000000000000E+00    0.0000000000000000E+00    3.0536999999999999E+01
Au    0.0000000000000000E+00    4.1459999999999999E+00    3.0536999999999999E+01
Au    2.0730000000000000E+00    2.0730000000000000E+00    3.0536999999999999E+01
Au    2.0730000000000000E+00    6.2190000000000012E+00    3.0536999999999999E+01
Au    4.1459999999999999E+00    0.0000000000000000E+00    3.0536999999999999E+01
Au    4.1459999999999999E+00    4.1459999999999999E+00    3.0536999999999999E+01
Au    6.2190000000000012E+00    2.0730000000000000E+00    3.0536999999999999E+01
Au    6.2190000000000012E+00    6.2190000000000012E+00    3.0536999999999999E+01
Au    0.0000000000000000E+00    2.0730000000000000E+00    3.2609999999999999E+01
Au    0.0000000000000000E+00    6.2190000000000012E+00    3.2609999999999999E+01
Au    2.0730000000000000E+00    0.0000000000000000E+00    3.2609999999999999E+01
Au    2.0730000000000000E+00    4.1459999999999999E+00    3.2609999999999999E+01
Au    4.1459999999999999E+00    2.0730000000000000E+00    3.2609999999999999E+01
Au    4.1459999999999999E+00    6.2190000000000012E+00    3.2609999999999999E+01
Au    6.2190000000000012E+00    0.0000000000000000E+00    3.2609999999999999E+01
Au    6.2190000000000012E+00    4.1459999999999999E+00    3.2609999999999999E+01
     &END COORD
     &KIND Au
       BASIS_SET SZV-MOLOPT-SR-GTH
       POTENTIAL GTH-PADE-q11
       &POTENTIAL
 1 0 10
  0.5900000000000000E+00 1  0.1160442790000000E+02
 3
  0.5211797500000001E+00 2  0.2538613590000000E+01 -0.1046136640000000E+01
  0.2701113200000000E+01
  0.6306130599999999E+00 2  0.3948527000000000E+00 -0.8695921300000000E+00
  0.2057830560000000E+01
  0.4407064300000000E+00 2 -0.4719069660000000E+01  0.7277708100000000E+00
 -0.1650429070000000E+01
         # Potential name:  GTH-PADE-Q11  for symbol:  AU
         # Potential read from the potential filename: GTH_POTENTIALS
       &END POTENTIAL
     &END KIND
     &KIND C
       BASIS_SET DZVP-MOLOPT-SR-GTH
       ELEMENT C
       POTENTIAL GTH-PADE-q4
       &POTENTIAL
 2 2
  0.3488304500000000E+00 2 -0.8513771100000000E+01  0.1228432030000000E+01
 2
  0.3045532100000000E+00 1  0.9522841789999999E+01
  0.2326773000000000E+00 0
         # Potential name:  GTH-PADE-Q4  for symbol:  C
         # Potential read from the potential filename: GTH_POTENTIALS
       &END POTENTIAL
     &END KIND
     &KIND S
       BASIS_SET DZVP-MOLOPT-SR-GTH
       ELEMENT S
       POTENTIAL GTH-PADE-q6
       &POTENTIAL
 2 4
  0.4200000000000000E+00 1 -0.6554491840000000E+01
 2
  0.3617566500000000E+00 2  0.7905302500000000E+01 -0.1731881300000000E+01
  0.4471698300000000E+01
  0.4052850200000000E+00 1  0.3866579000000000E+01
         # Potential name:  GTH-PADE-Q6  for symbol:  S
         # Potential read from the potential filename: GTH_POTENTIALS
       &END POTENTIAL
     &END KIND
     &KIND H
       BASIS_SET DZVP-MOLOPT-SR-GTH
       ELEMENT H
       POTENTIAL GTH-PADE-q1
       &POTENTIAL
 1
  0.2000000000000000E+00 2 -0.4180236800000000E+01  0.7250748200000000E+00
 0
         # Potential name:  GTH-PADE-Q1  for symbol:  H
         # Potential read from the potential filename: GTH_POTENTIALS
       &END POTENTIAL
     &END KIND
     &TOPOLOGY
       COORD_FILE_NAME em.xyz
       COORD_FILE_FORMAT  XYZ
       NUMBER_OF_ATOMS  116
       MULTIPLE_UNIT_CELL  1 1 1
     &END TOPOLOGY
   &END SUBSYS
 &END FORCE_EVAL
