 # Version information for this restart file 
 # current date 2023-02-22 11:09:02.120
 # current working dir /work4/scd/scarf1157/work/testing/cp2k-smeagol/bdt/cp2k/hollow-site/transport-cp2k/5-4/geometry-ordered/3x3-4/sz/bulk_layers-4/geo_opt/dzvp/Au-S-2.5_dft
 # Program compiled at                              Thu 26 Jan 13:39:53 GMT 2023
 # Program compiled on                                     cn1108.scarf.rl.ac.uk
 # Program compiled for                                                    local
 # Source code revision number                                       git:1ef701d
 &GLOBAL
   EXTENDED_FFT_LENGTHS  T
   PRINT_LEVEL  MEDIUM
   PROJECT_NAME dft_wfn
   RUN_TYPE  GEO_OPT
 &END GLOBAL
 &MOTION
   &GEO_OPT
     OPTIMIZER  BFGS
     MAX_ITER  1000
     STEP_START_VAL  9
   &END GEO_OPT
   &CONSTRAINT
     &FIXED_ATOMS
       LIST  1..40 76..116
     &END FIXED_ATOMS
   &END CONSTRAINT
   &PRINT
     &TRAJECTORY  ON
       FORMAT  XMOL
     &END TRAJECTORY
   &END PRINT
 &END MOTION
 &FORCE_EVAL
   METHOD  QS
   &DFT
     BASIS_SET_FILE_NAME BASIS_MOLOPT
     POTENTIAL_FILE_NAME GTH_POTENTIALS
     &SCF
       MAX_SCF  100
       EPS_SCF     9.9999999999999995E-08
       SCF_GUESS  ATOMIC
       ADDED_MOS  100
       &SMEAR  T
         METHOD  FERMI_DIRAC
         ELECTRONIC_TEMPERATURE     2.9300000000000000E+02
       &END SMEAR
       &MIXING  T
         METHOD  BROYDEN_MIXING
         ALPHA     2.9999999999999999E-01
         NBUFFER  8
       &END MIXING
       &PRINT
         &RESTART  SILENT
           FILENAME RESTART_0
         &END RESTART
       &END PRINT
     &END SCF
     &MGRID
       CUTOFF     4.0000000000000000E+02
     &END MGRID
     &XC
       DENSITY_CUTOFF     1.0000000000000000E-10
       GRADIENT_CUTOFF     1.0000000000000000E-10
       TAU_CUTOFF     1.0000000000000000E-10
       &XC_FUNCTIONAL  NO_SHORTCUT
         &PADE  T
         &END PADE
       &END XC_FUNCTIONAL
     &END XC
     &POISSON
       PERIODIC  XYZ
     &END POISSON
     &KPOINTS
       SCHEME MONKHORST-PACK 2 2 1
       SYMMETRY  F
       FULL_GRID  T
       VERBOSE  T
       EPS_GEO     1.0000000000000000E-08
       PARALLEL_GROUP_SIZE  0
     &END KPOINTS
     &PRINT
       &E_DENSITY_CUBE  ON
         STRIDE  2 2 2
       &END E_DENSITY_CUBE
       &V_HARTREE_CUBE  SILENT
         STRIDE  2 2 2
       &END V_HARTREE_CUBE
       &HIRSHFELD  SILENT
         SHAPE_FUNCTION  DENSITY
       &END HIRSHFELD
     &END PRINT
   &END DFT
   &SUBSYS
     &CELL
       A     8.2919999999999998E+00    0.0000000000000000E+00    0.0000000000000000E+00
       B     0.0000000000000000E+00    8.2919999999999998E+00    0.0000000000000000E+00
       C     0.0000000000000000E+00    0.0000000000000000E+00    3.4018000000000001E+01
       PERIODIC  XYZ
       MULTIPLE_UNIT_CELL  1 1 1
     &END CELL
     &COORD
Au    0.0000000000000000E+00    0.0000000000000000E+00    0.0000000000000000E+00
Au    0.0000000000000000E+00    4.1459999999999999E+00    0.0000000000000000E+00
Au    2.0730000000000000E+00    2.0730000000000000E+00    0.0000000000000000E+00
Au    2.0730000000000000E+00    6.2190000000000012E+00    0.0000000000000000E+00
Au    4.1459999999999999E+00    0.0000000000000000E+00    0.0000000000000000E+00
Au    4.1459999999999999E+00    4.1459999999999999E+00    0.0000000000000000E+00
Au    6.2190000000000012E+00    2.0730000000000000E+00    0.0000000000000000E+00
Au    6.2190000000000012E+00    6.2190000000000012E+00    0.0000000000000000E+00
Au    0.0000000000000000E+00    2.0730000000000000E+00    2.0730000000000000E+00
Au    0.0000000000000000E+00    6.2190000000000012E+00    2.0730000000000000E+00
Au    2.0730000000000000E+00    0.0000000000000000E+00    2.0730000000000000E+00
Au    2.0730000000000000E+00    4.1459999999999999E+00    2.0730000000000000E+00
Au    4.1459999999999999E+00    2.0730000000000000E+00    2.0730000000000000E+00
Au    4.1459999999999999E+00    6.2190000000000012E+00    2.0730000000000000E+00
Au    6.2190000000000012E+00    0.0000000000000000E+00    2.0730000000000000E+00
Au    6.2190000000000012E+00    4.1459999999999999E+00    2.0730000000000000E+00
Au    0.0000000000000000E+00    0.0000000000000000E+00    4.1459999999999999E+00
Au    0.0000000000000000E+00    4.1459999999999999E+00    4.1459999999999999E+00
Au    2.0730000000000000E+00    2.0730000000000000E+00    4.1459999999999999E+00
Au    2.0730000000000000E+00    6.2190000000000012E+00    4.1459999999999999E+00
Au    4.1459999999999999E+00    0.0000000000000000E+00    4.1459999999999999E+00
Au    4.1459999999999999E+00    4.1459999999999999E+00    4.1459999999999999E+00
Au    6.2190000000000012E+00    2.0730000000000000E+00    4.1459999999999999E+00
Au    6.2190000000000012E+00    6.2190000000000012E+00    4.1459999999999999E+00
Au    0.0000000000000000E+00    2.0730000000000000E+00    6.2190000000000012E+00
Au    0.0000000000000000E+00    6.2190000000000012E+00    6.2190000000000012E+00
Au    2.0730000000000000E+00    0.0000000000000000E+00    6.2190000000000012E+00
Au    2.0730000000000000E+00    4.1459999999999999E+00    6.2190000000000012E+00
Au    4.1459999999999999E+00    2.0730000000000000E+00    6.2190000000000012E+00
Au    4.1459999999999999E+00    6.2190000000000012E+00    6.2190000000000012E+00
Au    6.2190000000000012E+00    0.0000000000000000E+00    6.2190000000000012E+00
Au    6.2190000000000012E+00    4.1459999999999999E+00    6.2190000000000012E+00
Au    0.0000000000000000E+00    0.0000000000000000E+00    8.2919999999999998E+00
Au    0.0000000000000000E+00    4.1459999999999999E+00    8.2919999999999998E+00
Au    2.0730000000000000E+00    2.0730000000000000E+00    8.2919999999999998E+00
Au    2.0730000000000000E+00    6.2190000000000012E+00    8.2919999999999998E+00
Au    4.1459999999999999E+00    0.0000000000000000E+00    8.2919999999999998E+00
Au    4.1459999999999999E+00    4.1459999999999999E+00    8.2919999999999998E+00
Au    6.2190000000000012E+00    2.0730000000000000E+00    8.2919999999999998E+00
Au    6.2190000000000012E+00    6.2190000000000012E+00    8.2919999999999998E+00
Au    6.1085439705874998E-05    2.0731686367094881E+00    1.0383709435339378E+01
Au    3.9171926310219530E-05    6.2180832561142161E+00    1.0335327681258626E+01
Au    2.0845120928743661E+00    2.3782779481556292E-02    1.0382844369948440E+01
Au    2.0854510463394926E+00    4.1213252423679174E+00    1.0385382295204620E+01
Au    4.1459350420356458E+00    2.0735984396611729E+00    1.0370892160860761E+01
Au    4.1460269990706085E+00    6.2185070190245249E+00    1.0352598129874268E+01
Au    6.2076271350218413E+00    2.3738606171049201E-02    1.0382853282713352E+01
Au    6.2066804531507387E+00    4.1213672794883109E+00    1.0385404725245731E+01
Au   -1.1021277739351602E-04   -4.9519424546933956E-02    1.2467578889452529E+01
Au   -9.7176063024048483E-05    4.1945887069817589E+00    1.2466595433307464E+01
Au    1.9222907098750994E+00    2.0693640809990832E+00    1.2518978583130970E+01
Au    2.0106950365298033E+00    6.2212834247052564E+00    1.2452633727017586E+01
Au    4.1464853240690553E+00   -1.5853768582804442E-01    1.2465727362133189E+01
Au    4.1464812788232237E+00    4.3137022379458294E+00    1.2470590208921443E+01
Au    6.3697321585281292E+00    2.0693675112982715E+00    1.2519193226652082E+01
Au    6.2813421997070726E+00    6.2212950229273156E+00    1.2453352356680782E+01
S    4.1449493192052032E+00    2.0880886982934874E+00    1.3869347075450646E+01
C    4.1431488989193284E+00    2.0829740223575532E+00    1.5624403528346177E+01
H    1.9957257559801838E+00    2.0807233227832573E+00    1.5753368569244017E+01
H    6.2905064436754561E+00    2.0805958922141214E+00    1.5758837523335485E+01
C    2.9322104486659777E+00    2.0775424981577553E+00    1.6314781752928774E+01
C    5.3524803364793740E+00    2.0774644840461400E+00    1.6317598201220569E+01
C    2.9304995416350352E+00    2.0682194971811247E+00    1.7695069451886805E+01
C    5.3507013889501689E+00    2.0681204389031560E+00    1.7697822692700424E+01
H    1.9922064881006853E+00    2.0644426251691099E+00    1.8253264321374104E+01
H    6.2872478573357986E+00    2.0642771400963871E+00    1.8258826738670475E+01
C    4.1398483796648788E+00    2.0632432873882682E+00    1.8388421332938442E+01
S    4.1392924015619670E+00    2.0594462498569976E+00    2.0144343532048513E+01
Au   -1.5093887114938103E-02   -5.2124492205250401E-02    2.1549340961310534E+01
Au   -1.6318352075544867E-02    4.1996711793470380E+00    2.1547520174351657E+01
Au    1.9083539848497091E+00    2.0761856948031467E+00    2.1526921568374654E+01
Au    2.0073375751642875E+00    6.2164477619731953E+00    2.1544797209476538E+01
Au    4.1180461334808118E+00   -1.3883866430381767E-01    2.1560825794870041E+01
Au    4.1201145961048429E+00    4.2772724811087901E+00    2.1563651234389557E+01
Au    6.3589345146540621E+00    2.0756536531587089E+00    2.1532686612597669E+01
Au    6.2190000000000012E+00    6.2190000000000012E+00    2.1580000000000002E+01
Au    0.0000000000000000E+00    2.0730000000000000E+00    2.3652999999999999E+01
Au    0.0000000000000000E+00    6.2190000000000012E+00    2.3652999999999999E+01
Au    2.0730000000000000E+00    0.0000000000000000E+00    2.3652999999999999E+01
Au    2.0730000000000000E+00    4.1459999999999999E+00    2.3652999999999999E+01
Au    4.1459999999999999E+00    2.0730000000000000E+00    2.3652999999999999E+01
Au    4.1459999999999999E+00    6.2190000000000012E+00    2.3652999999999999E+01
Au    6.2190000000000012E+00    0.0000000000000000E+00    2.3652999999999999E+01
Au    6.2190000000000012E+00    4.1459999999999999E+00    2.3652999999999999E+01
Au    0.0000000000000000E+00    0.0000000000000000E+00    2.5726000000000003E+01
Au    0.0000000000000000E+00    4.1459999999999999E+00    2.5726000000000003E+01
Au    2.0730000000000000E+00    2.0730000000000000E+00    2.5726000000000003E+01
Au    2.0730000000000000E+00    6.2190000000000012E+00    2.5726000000000003E+01
Au    4.1459999999999999E+00    0.0000000000000000E+00    2.5726000000000003E+01
Au    4.1459999999999999E+00    4.1459999999999999E+00    2.5726000000000003E+01
Au    6.2190000000000012E+00    2.0730000000000000E+00    2.5726000000000003E+01
Au    6.2190000000000012E+00    6.2190000000000012E+00    2.5726000000000003E+01
Au    0.0000000000000000E+00    2.0730000000000000E+00    2.7798999999999999E+01
Au    0.0000000000000000E+00    6.2190000000000012E+00    2.7798999999999999E+01
Au    2.0730000000000000E+00    0.0000000000000000E+00    2.7798999999999999E+01
Au    2.0730000000000000E+00    4.1459999999999999E+00    2.7798999999999999E+01
Au    4.1459999999999999E+00    2.0730000000000000E+00    2.7798999999999999E+01
Au    4.1459999999999999E+00    6.2190000000000012E+00    2.7798999999999999E+01
Au    6.2190000000000012E+00    0.0000000000000000E+00    2.7798999999999999E+01
Au    6.2190000000000012E+00    4.1459999999999999E+00    2.7798999999999999E+01
Au    0.0000000000000000E+00    0.0000000000000000E+00    2.9872000000000000E+01
Au    0.0000000000000000E+00    4.1459999999999999E+00    2.9872000000000000E+01
Au    2.0730000000000000E+00    2.0730000000000000E+00    2.9872000000000000E+01
Au    2.0730000000000000E+00    6.2190000000000012E+00    2.9872000000000000E+01
Au    4.1459999999999999E+00    0.0000000000000000E+00    2.9872000000000000E+01
Au    4.1459999999999999E+00    4.1459999999999999E+00    2.9872000000000000E+01
Au    6.2190000000000012E+00    2.0730000000000000E+00    2.9872000000000000E+01
Au    6.2190000000000012E+00    6.2190000000000012E+00    2.9872000000000000E+01
Au    0.0000000000000000E+00    2.0730000000000000E+00    3.1945000000000004E+01
Au    0.0000000000000000E+00    6.2190000000000012E+00    3.1945000000000004E+01
Au    2.0730000000000000E+00    0.0000000000000000E+00    3.1945000000000004E+01
Au    2.0730000000000000E+00    4.1459999999999999E+00    3.1945000000000004E+01
Au    4.1459999999999999E+00    2.0730000000000000E+00    3.1945000000000004E+01
Au    4.1459999999999999E+00    6.2190000000000012E+00    3.1945000000000004E+01
Au    6.2190000000000012E+00    0.0000000000000000E+00    3.1945000000000004E+01
Au    6.2190000000000012E+00    4.1459999999999999E+00    3.1945000000000004E+01
     &END COORD
     &KIND Au
       BASIS_SET SZV-MOLOPT-SR-GTH
       POTENTIAL GTH-PADE-q11
       &POTENTIAL
 1 0 10
  0.5900000000000000E+00 1  0.1160442790000000E+02
 3
  0.5211797500000001E+00 2  0.2538613590000000E+01 -0.1046136640000000E+01
  0.2701113200000000E+01
  0.6306130599999999E+00 2  0.3948527000000000E+00 -0.8695921300000000E+00
  0.2057830560000000E+01
  0.4407064300000000E+00 2 -0.4719069660000000E+01  0.7277708100000000E+00
 -0.1650429070000000E+01
         # Potential name:  GTH-PADE-Q11  for symbol:  AU
         # Potential read from the potential filename: GTH_POTENTIALS
       &END POTENTIAL
     &END KIND
     &KIND C
       BASIS_SET DZVP-MOLOPT-SR-GTH
       ELEMENT C
       POTENTIAL GTH-PADE-q4
       &POTENTIAL
 2 2
  0.3488304500000000E+00 2 -0.8513771100000000E+01  0.1228432030000000E+01
 2
  0.3045532100000000E+00 1  0.9522841789999999E+01
  0.2326773000000000E+00 0
         # Potential name:  GTH-PADE-Q4  for symbol:  C
         # Potential read from the potential filename: GTH_POTENTIALS
       &END POTENTIAL
     &END KIND
     &KIND S
       BASIS_SET DZVP-MOLOPT-SR-GTH
       ELEMENT S
       POTENTIAL GTH-PADE-q6
       &POTENTIAL
 2 4
  0.4200000000000000E+00 1 -0.6554491840000000E+01
 2
  0.3617566500000000E+00 2  0.7905302500000000E+01 -0.1731881300000000E+01
  0.4471698300000000E+01
  0.4052850200000000E+00 1  0.3866579000000000E+01
         # Potential name:  GTH-PADE-Q6  for symbol:  S
         # Potential read from the potential filename: GTH_POTENTIALS
       &END POTENTIAL
     &END KIND
     &KIND H
       BASIS_SET DZVP-MOLOPT-SR-GTH
       ELEMENT H
       POTENTIAL GTH-PADE-q1
       &POTENTIAL
 1
  0.2000000000000000E+00 2 -0.4180236800000000E+01  0.7250748200000000E+00
 0
         # Potential name:  GTH-PADE-Q1  for symbol:  H
         # Potential read from the potential filename: GTH_POTENTIALS
       &END POTENTIAL
     &END KIND
     &TOPOLOGY
       COORD_FILE_NAME em.xyz
       COORD_FILE_FORMAT  XYZ
       NUMBER_OF_ATOMS  116
       MULTIPLE_UNIT_CELL  1 1 1
     &END TOPOLOGY
   &END SUBSYS
 &END FORCE_EVAL
