 # Version information for this restart file 
 # current date 2023-02-22 11:31:58.859
 # current working dir /work4/scd/scarf1157/work/testing/cp2k-smeagol/bdt/cp2k/hollow-site/transport-cp2k/5-4/geometry-ordered/3x3-4/sz/bulk_layers-4/geo_opt/dzvp/Au-S-2.6_dft_cg
 # Program compiled at                              Thu 26 Jan 13:39:53 GMT 2023
 # Program compiled on                                     cn1108.scarf.rl.ac.uk
 # Program compiled for                                                    local
 # Source code revision number                                       git:1ef701d
 &GLOBAL
   EXTENDED_FFT_LENGTHS  T
   PRINT_LEVEL  MEDIUM
   PROJECT_NAME dft_wfn
   RUN_TYPE  GEO_OPT
 &END GLOBAL
 &MOTION
   &GEO_OPT
     OPTIMIZER  CG
     MAX_ITER  1000
     STEP_START_VAL  4
   &END GEO_OPT
   &CONSTRAINT
     &FIXED_ATOMS
       LIST  1..40 76..116
     &END FIXED_ATOMS
   &END CONSTRAINT
   &PRINT
     &TRAJECTORY  ON
       FORMAT  XMOL
     &END TRAJECTORY
   &END PRINT
 &END MOTION
 &FORCE_EVAL
   METHOD  QS
   &DFT
     BASIS_SET_FILE_NAME BASIS_MOLOPT
     POTENTIAL_FILE_NAME GTH_POTENTIALS
     &SCF
       MAX_SCF  100
       EPS_SCF     9.9999999999999995E-08
       SCF_GUESS  ATOMIC
       ADDED_MOS  100
       &SMEAR  T
         METHOD  FERMI_DIRAC
         ELECTRONIC_TEMPERATURE     2.9300000000000000E+02
       &END SMEAR
       &MIXING  T
         METHOD  BROYDEN_MIXING
         ALPHA     2.9999999999999999E-01
         NBUFFER  8
       &END MIXING
       &PRINT
         &RESTART  SILENT
           FILENAME RESTART_0
         &END RESTART
       &END PRINT
     &END SCF
     &MGRID
       CUTOFF     4.0000000000000000E+02
     &END MGRID
     &XC
       DENSITY_CUTOFF     1.0000000000000000E-10
       GRADIENT_CUTOFF     1.0000000000000000E-10
       TAU_CUTOFF     1.0000000000000000E-10
       &XC_FUNCTIONAL  NO_SHORTCUT
         &PADE  T
         &END PADE
       &END XC_FUNCTIONAL
     &END XC
     &POISSON
       PERIODIC  XYZ
     &END POISSON
     &KPOINTS
       SCHEME MONKHORST-PACK 2 2 1
       SYMMETRY  F
       FULL_GRID  T
       VERBOSE  T
       EPS_GEO     1.0000000000000000E-08
       PARALLEL_GROUP_SIZE  0
     &END KPOINTS
     &PRINT
       &E_DENSITY_CUBE  ON
         STRIDE  2 2 2
       &END E_DENSITY_CUBE
       &V_HARTREE_CUBE  SILENT
         STRIDE  2 2 2
       &END V_HARTREE_CUBE
       &HIRSHFELD  SILENT
         SHAPE_FUNCTION  DENSITY
       &END HIRSHFELD
     &END PRINT
   &END DFT
   &SUBSYS
     &CELL
       A     8.2919999999999998E+00    0.0000000000000000E+00    0.0000000000000000E+00
       B     0.0000000000000000E+00    8.2919999999999998E+00    0.0000000000000000E+00
       C     0.0000000000000000E+00    0.0000000000000000E+00    3.4360999999999997E+01
       PERIODIC  XYZ
       MULTIPLE_UNIT_CELL  1 1 1
     &END CELL
     &COORD
Au    0.0000000000000000E+00    0.0000000000000000E+00    0.0000000000000000E+00
Au    0.0000000000000000E+00    4.1459999999999999E+00    0.0000000000000000E+00
Au    2.0730000000000000E+00    2.0730000000000000E+00    0.0000000000000000E+00
Au    2.0730000000000000E+00    6.2190000000000012E+00    0.0000000000000000E+00
Au    4.1459999999999999E+00    0.0000000000000000E+00    0.0000000000000000E+00
Au    4.1459999999999999E+00    4.1459999999999999E+00    0.0000000000000000E+00
Au    6.2190000000000012E+00    2.0730000000000000E+00    0.0000000000000000E+00
Au    6.2190000000000012E+00    6.2190000000000012E+00    0.0000000000000000E+00
Au    0.0000000000000000E+00    2.0730000000000000E+00    2.0730000000000000E+00
Au    0.0000000000000000E+00    6.2190000000000012E+00    2.0730000000000000E+00
Au    2.0730000000000000E+00    0.0000000000000000E+00    2.0730000000000000E+00
Au    2.0730000000000000E+00    4.1459999999999999E+00    2.0730000000000000E+00
Au    4.1459999999999999E+00    2.0730000000000000E+00    2.0730000000000000E+00
Au    4.1459999999999999E+00    6.2190000000000012E+00    2.0730000000000000E+00
Au    6.2190000000000012E+00    0.0000000000000000E+00    2.0730000000000000E+00
Au    6.2190000000000012E+00    4.1459999999999999E+00    2.0730000000000000E+00
Au    0.0000000000000000E+00    0.0000000000000000E+00    4.1459999999999999E+00
Au    0.0000000000000000E+00    4.1459999999999999E+00    4.1459999999999999E+00
Au    2.0730000000000000E+00    2.0730000000000000E+00    4.1459999999999999E+00
Au    2.0730000000000000E+00    6.2190000000000012E+00    4.1459999999999999E+00
Au    4.1459999999999999E+00    0.0000000000000000E+00    4.1459999999999999E+00
Au    4.1459999999999999E+00    4.1459999999999999E+00    4.1459999999999999E+00
Au    6.2190000000000012E+00    2.0730000000000000E+00    4.1459999999999999E+00
Au    6.2190000000000012E+00    6.2190000000000012E+00    4.1459999999999999E+00
Au    0.0000000000000000E+00    2.0730000000000000E+00    6.2190000000000012E+00
Au    0.0000000000000000E+00    6.2190000000000012E+00    6.2190000000000012E+00
Au    2.0730000000000000E+00    0.0000000000000000E+00    6.2190000000000012E+00
Au    2.0730000000000000E+00    4.1459999999999999E+00    6.2190000000000012E+00
Au    4.1459999999999999E+00    2.0730000000000000E+00    6.2190000000000012E+00
Au    4.1459999999999999E+00    6.2190000000000012E+00    6.2190000000000012E+00
Au    6.2190000000000012E+00    0.0000000000000000E+00    6.2190000000000012E+00
Au    6.2190000000000012E+00    4.1459999999999999E+00    6.2190000000000012E+00
Au    0.0000000000000000E+00    0.0000000000000000E+00    8.2919999999999998E+00
Au    0.0000000000000000E+00    4.1459999999999999E+00    8.2919999999999998E+00
Au    2.0730000000000000E+00    2.0730000000000000E+00    8.2919999999999998E+00
Au    2.0730000000000000E+00    6.2190000000000012E+00    8.2919999999999998E+00
Au    4.1459999999999999E+00    0.0000000000000000E+00    8.2919999999999998E+00
Au    4.1459999999999999E+00    4.1459999999999999E+00    8.2919999999999998E+00
Au    6.2190000000000012E+00    2.0730000000000000E+00    8.2919999999999998E+00
Au    6.2190000000000012E+00    6.2190000000000012E+00    8.2919999999999998E+00
Au    4.4166444753191954E-05    2.0730282675242822E+00    1.0365338557586558E+01
Au    2.9816540184302248E-07    6.2189471081134853E+00    1.0359350399364878E+01
Au    2.0746898528865936E+00    4.3146807001875360E-03    1.0356451639265689E+01
Au    2.0746813036243967E+00    4.1417578524573839E+00    1.0356322046579868E+01
Au    4.1460284986057268E+00    2.0728546728213719E+00    1.0328661671660457E+01
Au    4.1459875912759747E+00    6.2185771765001343E+00    1.0358299361517005E+01
Au    6.2172989284870495E+00    4.3245261650636689E-03    1.0356482651113431E+01
Au    6.2173087025621987E+00    4.1417486075870418E+00    1.0356351769766551E+01
Au    2.0155385473567748E-05   -2.7514899085844570E-02    1.2447262442671125E+01
Au    2.1458316038528684E-05    4.1736710541354176E+00    1.2447366336997367E+01
Au    1.9660948452865723E+00    2.0728487945106879E+00    1.2455554021432835E+01
Au    2.0424162886899468E+00    6.2190801650003840E+00    1.2446677521440716E+01
Au    4.1459870976546345E+00   -1.1707316152188312E-01    1.2434993993414846E+01
Au    4.1459879850313843E+00    4.2627414933792673E+00    1.2435268486723782E+01
Au    6.3261665096493527E+00    2.0728501967906898E+00    1.2455482990756634E+01
Au    6.2495525794944005E+00    6.2190813260453854E+00    1.2446660878778879E+01
S    4.1455613604457895E+00    2.0796342075030445E+00    1.3976949504400009E+01
C    4.1472721489462474E+00    2.0824078332061320E+00    1.5789135251632546E+01
H    1.9739573894500757E+00    2.0928459047995682E+00    1.5924627306643348E+01
H    6.3063988982037165E+00    2.0926813047308710E+00    1.5937056446044101E+01
C    2.9111536393905140E+00    2.0842287453467536E+00    1.6475359519006439E+01
C    5.3786869325184243E+00    2.0844044062552260E+00    1.6472207416351452E+01
C    2.9030028291544170E+00    2.0601188073491823E+00    1.7887336345700259E+01
C    5.3699527263486955E+00    2.0603267805777232E+00    1.7885117460135092E+01
H    1.9762717132289298E+00    2.0513802319813119E+00    1.8423850061817440E+01
H    6.3090776189160547E+00    2.0511455925455131E+00    1.8437022466911312E+01
C    4.1339108154301849E+00    2.0623381179629590E+00    1.8573023452445295E+01
S    4.1410032604845002E+00    2.0659736221959646E+00    2.0380742903878343E+01
Au   -5.5344461349617167E-04   -2.5711840859412367E-02    2.1912884928098997E+01
Au   -5.5855248785629239E-04    4.1715233825772815E+00    2.1912998506342397E+01
Au    1.9606391386034010E+00    2.0732374132681484E+00    2.1903018451964538E+01
Au    2.0443173049240593E+00    6.2188825936087921E+00    2.1912964803528840E+01
Au    4.1454287727762740E+00   -1.2069978953664555E-01    2.1922493689142716E+01
Au    4.1454322379100130E+00    4.2669439067280353E+00    2.1922754705549462E+01
Au    6.3308317325777894E+00    2.0732368843356470E+00    2.1902902079584525E+01
Au    6.2190000000000012E+00    6.2190000000000012E+00    2.1923000000000002E+01
Au    0.0000000000000000E+00    2.0730000000000000E+00    2.3995999999999999E+01
Au    0.0000000000000000E+00    6.2190000000000012E+00    2.3995999999999999E+01
Au    2.0730000000000000E+00    0.0000000000000000E+00    2.3995999999999999E+01
Au    2.0730000000000000E+00    4.1459999999999999E+00    2.3995999999999999E+01
Au    4.1459999999999999E+00    2.0730000000000000E+00    2.3995999999999999E+01
Au    4.1459999999999999E+00    6.2190000000000012E+00    2.3995999999999999E+01
Au    6.2190000000000012E+00    0.0000000000000000E+00    2.3995999999999999E+01
Au    6.2190000000000012E+00    4.1459999999999999E+00    2.3995999999999999E+01
Au    0.0000000000000000E+00    0.0000000000000000E+00    2.6069000000000003E+01
Au    0.0000000000000000E+00    4.1459999999999999E+00    2.6069000000000003E+01
Au    2.0730000000000000E+00    2.0730000000000000E+00    2.6069000000000003E+01
Au    2.0730000000000000E+00    6.2190000000000012E+00    2.6069000000000003E+01
Au    4.1459999999999999E+00    0.0000000000000000E+00    2.6069000000000003E+01
Au    4.1459999999999999E+00    4.1459999999999999E+00    2.6069000000000003E+01
Au    6.2190000000000012E+00    2.0730000000000000E+00    2.6069000000000003E+01
Au    6.2190000000000012E+00    6.2190000000000012E+00    2.6069000000000003E+01
Au    0.0000000000000000E+00    2.0730000000000000E+00    2.8141999999999999E+01
Au    0.0000000000000000E+00    6.2190000000000012E+00    2.8141999999999999E+01
Au    2.0730000000000000E+00    0.0000000000000000E+00    2.8141999999999999E+01
Au    2.0730000000000000E+00    4.1459999999999999E+00    2.8141999999999999E+01
Au    4.1459999999999999E+00    2.0730000000000000E+00    2.8141999999999999E+01
Au    4.1459999999999999E+00    6.2190000000000012E+00    2.8141999999999999E+01
Au    6.2190000000000012E+00    0.0000000000000000E+00    2.8141999999999999E+01
Au    6.2190000000000012E+00    4.1459999999999999E+00    2.8141999999999999E+01
Au    0.0000000000000000E+00    0.0000000000000000E+00    3.0215000000000000E+01
Au    0.0000000000000000E+00    4.1459999999999999E+00    3.0215000000000000E+01
Au    2.0730000000000000E+00    2.0730000000000000E+00    3.0215000000000000E+01
Au    2.0730000000000000E+00    6.2190000000000012E+00    3.0215000000000000E+01
Au    4.1459999999999999E+00    0.0000000000000000E+00    3.0215000000000000E+01
Au    4.1459999999999999E+00    4.1459999999999999E+00    3.0215000000000000E+01
Au    6.2190000000000012E+00    2.0730000000000000E+00    3.0215000000000000E+01
Au    6.2190000000000012E+00    6.2190000000000012E+00    3.0215000000000000E+01
Au    0.0000000000000000E+00    2.0730000000000000E+00    3.2287999999999997E+01
Au    0.0000000000000000E+00    6.2190000000000012E+00    3.2287999999999997E+01
Au    2.0730000000000000E+00    0.0000000000000000E+00    3.2287999999999997E+01
Au    2.0730000000000000E+00    4.1459999999999999E+00    3.2287999999999997E+01
Au    4.1459999999999999E+00    2.0730000000000000E+00    3.2287999999999997E+01
Au    4.1459999999999999E+00    6.2190000000000012E+00    3.2287999999999997E+01
Au    6.2190000000000012E+00    0.0000000000000000E+00    3.2287999999999997E+01
Au    6.2190000000000012E+00    4.1459999999999999E+00    3.2287999999999997E+01
     &END COORD
     &KIND Au
       BASIS_SET SZV-MOLOPT-SR-GTH
       POTENTIAL GTH-PADE-q11
       &POTENTIAL
 1 0 10
  0.5900000000000000E+00 1  0.1160442790000000E+02
 3
  0.5211797500000001E+00 2  0.2538613590000000E+01 -0.1046136640000000E+01
  0.2701113200000000E+01
  0.6306130599999999E+00 2  0.3948527000000000E+00 -0.8695921300000000E+00
  0.2057830560000000E+01
  0.4407064300000000E+00 2 -0.4719069660000000E+01  0.7277708100000000E+00
 -0.1650429070000000E+01
         # Potential name:  GTH-PADE-Q11  for symbol:  AU
         # Potential read from the potential filename: GTH_POTENTIALS
       &END POTENTIAL
     &END KIND
     &KIND C
       BASIS_SET SZV-MOLOPT-SR-GTH
       ELEMENT C
       POTENTIAL GTH-PADE-q4
       &POTENTIAL
 2 2
  0.3488304500000000E+00 2 -0.8513771100000000E+01  0.1228432030000000E+01
 2
  0.3045532100000000E+00 1  0.9522841789999999E+01
  0.2326773000000000E+00 0
         # Potential name:  GTH-PADE-Q4  for symbol:  C
         # Potential read from the potential filename: GTH_POTENTIALS
       &END POTENTIAL
     &END KIND
     &KIND S
       BASIS_SET SZV-MOLOPT-SR-GTH
       ELEMENT S
       POTENTIAL GTH-PADE-q6
       &POTENTIAL
 2 4
  0.4200000000000000E+00 1 -0.6554491840000000E+01
 2
  0.3617566500000000E+00 2  0.7905302500000000E+01 -0.1731881300000000E+01
  0.4471698300000000E+01
  0.4052850200000000E+00 1  0.3866579000000000E+01
         # Potential name:  GTH-PADE-Q6  for symbol:  S
         # Potential read from the potential filename: GTH_POTENTIALS
       &END POTENTIAL
     &END KIND
     &KIND H
       BASIS_SET SZV-MOLOPT-SR-GTH
       ELEMENT H
       POTENTIAL GTH-PADE-q1
       &POTENTIAL
 1
  0.2000000000000000E+00 2 -0.4180236800000000E+01  0.7250748200000000E+00
 0
         # Potential name:  GTH-PADE-Q1  for symbol:  H
         # Potential read from the potential filename: GTH_POTENTIALS
       &END POTENTIAL
     &END KIND
     &TOPOLOGY
       COORD_FILE_NAME em.xyz
       COORD_FILE_FORMAT  XYZ
       NUMBER_OF_ATOMS  116
       MULTIPLE_UNIT_CELL  1 1 1
     &END TOPOLOGY
   &END SUBSYS
 &END FORCE_EVAL
