 # Version information for this restart file 
 # current date 2023-02-22 11:31:07.722
 # current working dir /work4/scd/scarf1157/work/testing/cp2k-smeagol/bdt/cp2k/hollow-site/transport-cp2k/5-4/geometry-ordered/3x3-4/sz/bulk_layers-4/geo_opt/dzvp/Au-S-2.45_dft_cg
 # Program compiled at                              Thu 26 Jan 13:39:53 GMT 2023
 # Program compiled on                                     cn1108.scarf.rl.ac.uk
 # Program compiled for                                                    local
 # Source code revision number                                       git:1ef701d
 &GLOBAL
   EXTENDED_FFT_LENGTHS  T
   PRINT_LEVEL  MEDIUM
   PROJECT_NAME dft_wfn
   RUN_TYPE  GEO_OPT
 &END GLOBAL
 &MOTION
   &GEO_OPT
     OPTIMIZER  CG
     MAX_ITER  1000
     STEP_START_VAL  4
   &END GEO_OPT
   &CONSTRAINT
     &FIXED_ATOMS
       LIST  1..40 76..116
     &END FIXED_ATOMS
   &END CONSTRAINT
   &PRINT
     &TRAJECTORY  ON
       FORMAT  XMOL
     &END TRAJECTORY
   &END PRINT
 &END MOTION
 &FORCE_EVAL
   METHOD  QS
   &DFT
     BASIS_SET_FILE_NAME BASIS_MOLOPT
     POTENTIAL_FILE_NAME GTH_POTENTIALS
     &SCF
       MAX_SCF  100
       EPS_SCF     9.9999999999999995E-08
       SCF_GUESS  ATOMIC
       ADDED_MOS  100
       &SMEAR  T
         METHOD  FERMI_DIRAC
         ELECTRONIC_TEMPERATURE     2.9300000000000000E+02
       &END SMEAR
       &MIXING  T
         METHOD  BROYDEN_MIXING
         ALPHA     2.9999999999999999E-01
         NBUFFER  8
       &END MIXING
       &PRINT
         &RESTART  SILENT
           FILENAME RESTART_0
         &END RESTART
       &END PRINT
     &END SCF
     &MGRID
       CUTOFF     4.0000000000000000E+02
     &END MGRID
     &XC
       DENSITY_CUTOFF     1.0000000000000000E-10
       GRADIENT_CUTOFF     1.0000000000000000E-10
       TAU_CUTOFF     1.0000000000000000E-10
       &XC_FUNCTIONAL  NO_SHORTCUT
         &PADE  T
         &END PADE
       &END XC_FUNCTIONAL
     &END XC
     &POISSON
       PERIODIC  XYZ
     &END POISSON
     &KPOINTS
       SCHEME MONKHORST-PACK 2 2 1
       SYMMETRY  F
       FULL_GRID  T
       VERBOSE  T
       EPS_GEO     1.0000000000000000E-08
       PARALLEL_GROUP_SIZE  0
     &END KPOINTS
     &PRINT
       &E_DENSITY_CUBE  ON
         STRIDE  2 2 2
       &END E_DENSITY_CUBE
       &V_HARTREE_CUBE  SILENT
         STRIDE  2 2 2
       &END V_HARTREE_CUBE
       &HIRSHFELD  SILENT
         SHAPE_FUNCTION  DENSITY
       &END HIRSHFELD
     &END PRINT
   &END DFT
   &SUBSYS
     &CELL
       A     8.2919999999999998E+00    0.0000000000000000E+00    0.0000000000000000E+00
       B     0.0000000000000000E+00    8.2919999999999998E+00    0.0000000000000000E+00
       C     0.0000000000000000E+00    0.0000000000000000E+00    3.3834000000000003E+01
       PERIODIC  XYZ
       MULTIPLE_UNIT_CELL  1 1 1
     &END CELL
     &COORD
Au    0.0000000000000000E+00    0.0000000000000000E+00    0.0000000000000000E+00
Au    0.0000000000000000E+00    4.1459999999999999E+00    0.0000000000000000E+00
Au    2.0730000000000000E+00    2.0730000000000000E+00    0.0000000000000000E+00
Au    2.0730000000000000E+00    6.2190000000000012E+00    0.0000000000000000E+00
Au    4.1459999999999999E+00    0.0000000000000000E+00    0.0000000000000000E+00
Au    4.1459999999999999E+00    4.1459999999999999E+00    0.0000000000000000E+00
Au    6.2190000000000012E+00    2.0730000000000000E+00    0.0000000000000000E+00
Au    6.2190000000000012E+00    6.2190000000000012E+00    0.0000000000000000E+00
Au    0.0000000000000000E+00    2.0730000000000000E+00    2.0730000000000000E+00
Au    0.0000000000000000E+00    6.2190000000000012E+00    2.0730000000000000E+00
Au    2.0730000000000000E+00    0.0000000000000000E+00    2.0730000000000000E+00
Au    2.0730000000000000E+00    4.1459999999999999E+00    2.0730000000000000E+00
Au    4.1459999999999999E+00    2.0730000000000000E+00    2.0730000000000000E+00
Au    4.1459999999999999E+00    6.2190000000000012E+00    2.0730000000000000E+00
Au    6.2190000000000012E+00    0.0000000000000000E+00    2.0730000000000000E+00
Au    6.2190000000000012E+00    4.1459999999999999E+00    2.0730000000000000E+00
Au    0.0000000000000000E+00    0.0000000000000000E+00    4.1459999999999999E+00
Au    0.0000000000000000E+00    4.1459999999999999E+00    4.1459999999999999E+00
Au    2.0730000000000000E+00    2.0730000000000000E+00    4.1459999999999999E+00
Au    2.0730000000000000E+00    6.2190000000000012E+00    4.1459999999999999E+00
Au    4.1459999999999999E+00    0.0000000000000000E+00    4.1459999999999999E+00
Au    4.1459999999999999E+00    4.1459999999999999E+00    4.1459999999999999E+00
Au    6.2190000000000012E+00    2.0730000000000000E+00    4.1459999999999999E+00
Au    6.2190000000000012E+00    6.2190000000000012E+00    4.1459999999999999E+00
Au    0.0000000000000000E+00    2.0730000000000000E+00    6.2190000000000012E+00
Au    0.0000000000000000E+00    6.2190000000000012E+00    6.2190000000000012E+00
Au    2.0730000000000000E+00    0.0000000000000000E+00    6.2190000000000012E+00
Au    2.0730000000000000E+00    4.1459999999999999E+00    6.2190000000000012E+00
Au    4.1459999999999999E+00    2.0730000000000000E+00    6.2190000000000012E+00
Au    4.1459999999999999E+00    6.2190000000000012E+00    6.2190000000000012E+00
Au    6.2190000000000012E+00    0.0000000000000000E+00    6.2190000000000012E+00
Au    6.2190000000000012E+00    4.1459999999999999E+00    6.2190000000000012E+00
Au    0.0000000000000000E+00    0.0000000000000000E+00    8.2919999999999998E+00
Au    0.0000000000000000E+00    4.1459999999999999E+00    8.2919999999999998E+00
Au    2.0730000000000000E+00    2.0730000000000000E+00    8.2919999999999998E+00
Au    2.0730000000000000E+00    6.2190000000000012E+00    8.2919999999999998E+00
Au    4.1459999999999999E+00    0.0000000000000000E+00    8.2919999999999998E+00
Au    4.1459999999999999E+00    4.1459999999999999E+00    8.2919999999999998E+00
Au    6.2190000000000012E+00    2.0730000000000000E+00    8.2919999999999998E+00
Au    6.2190000000000012E+00    6.2190000000000012E+00    8.2919999999999998E+00
Au    1.7861447105733059E-05    2.0729983034327919E+00    1.0372295784653000E+01
Au   -6.4435239365160546E-06    6.2189503622628974E+00    1.0360627816295437E+01
Au    2.0725608554871053E+00    1.2751891107366711E-03    1.0356223818471248E+01
Au    2.0725388583698510E+00    4.1447949324907540E+00    1.0356097382001916E+01
Au    4.1460238647182077E+00    2.0728758030395560E+00    1.0306539995461703E+01
Au    4.1459874144192597E+00    6.2187400707307727E+00    1.0368049480762348E+01
Au    6.2194292623754661E+00    1.2825407352265151E-03    1.0356235359683559E+01
Au    6.2194522900866707E+00    4.1447881527245007E+00    1.0356107992013950E+01
Au    2.5286402256182853E-05   -1.8414317209818541E-02    1.2442402524241016E+01
Au    2.6102825999761094E-05    4.1645421791670589E+00    1.2442540878357665E+01
Au    1.9563253031528822E+00    2.0729908570450664E+00    1.2436924155038760E+01
Au    2.0524417353460742E+00    6.2190201145544002E+00    1.2441379482118247E+01
Au    4.1459723032201188E+00   -1.2147819933569556E-01    1.2424081197974980E+01
Au    4.1459729434726054E+00    4.2668809452041954E+00    1.2424413982310336E+01
Au    6.3357948339083858E+00    2.0729918293002987E+00    1.2436875417001886E+01
Au    6.2395422264286964E+00    6.2190209449961484E+00    1.2441361424241439E+01
S    4.1459264579072217E+00    2.0769260684878392E+00    1.3814069287388877E+01
C    4.1436344886805969E+00    2.0844884052062036E+00    1.5567599760686051E+01
H    1.9943936117456282E+00    2.0969942319843766E+00    1.5663929536769066E+01
H    6.2929052938668377E+00    2.0969035558935674E+00    1.5673123138009581E+01
C    2.9220127772834403E+00    2.0799395180562446E+00    1.6228567079491750E+01
C    5.3644603672443472E+00    2.0800231663216917E+00    1.6230284137704615E+01
C    2.9170007189514053E+00    2.0641183257837072E+00    1.7603991708729012E+01
C    5.3597574408574848E+00    2.0641841105619814E+00    1.7605712328856828E+01
H    1.9887494906658094E+00    2.0471351842052439E+00    1.8161174342168756E+01
H    6.2869684103630226E+00    2.0470297219590963E+00    1.8170761118747276E+01
C    4.1381004030112942E+00    2.0599688888326630E+00    1.8265768815574649E+01
S    4.1418088950543099E+00    2.0687604385051204E+00    2.0017858704310562E+01
Au   -3.4597940453771778E-04   -1.7213814487843225E-02    2.1391366864650806E+01
Au   -3.4711685157353897E-04    4.1630606557251575E+00    2.1391521989668654E+01
Au    1.9517124906694145E+00    2.0730679975410178E+00    2.1394735792517839E+01
Au    2.0536964621357212E+00    6.2189464624524913E+00    2.1392131443813213E+01
Au    4.1457781557545097E+00   -1.2493515451313821E-01    2.1406942691430686E+01
Au    4.1457791338326651E+00    4.2715501716501958E+00    2.1407315068729179E+01
Au    6.3406389894121853E+00    2.0730687993748851E+00    2.1395080247428819E+01
Au    6.2190000000000012E+00    6.2190000000000012E+00    2.1396000000000001E+01
Au    0.0000000000000000E+00    2.0730000000000000E+00    2.3469000000000001E+01
Au    0.0000000000000000E+00    6.2190000000000012E+00    2.3469000000000001E+01
Au    2.0730000000000000E+00    0.0000000000000000E+00    2.3469000000000001E+01
Au    2.0730000000000000E+00    4.1459999999999999E+00    2.3469000000000001E+01
Au    4.1459999999999999E+00    2.0730000000000000E+00    2.3469000000000001E+01
Au    4.1459999999999999E+00    6.2190000000000012E+00    2.3469000000000001E+01
Au    6.2190000000000012E+00    0.0000000000000000E+00    2.3469000000000001E+01
Au    6.2190000000000012E+00    4.1459999999999999E+00    2.3469000000000001E+01
Au    0.0000000000000000E+00    0.0000000000000000E+00    2.5542000000000005E+01
Au    0.0000000000000000E+00    4.1459999999999999E+00    2.5542000000000005E+01
Au    2.0730000000000000E+00    2.0730000000000000E+00    2.5542000000000005E+01
Au    2.0730000000000000E+00    6.2190000000000012E+00    2.5542000000000005E+01
Au    4.1459999999999999E+00    0.0000000000000000E+00    2.5542000000000005E+01
Au    4.1459999999999999E+00    4.1459999999999999E+00    2.5542000000000005E+01
Au    6.2190000000000012E+00    2.0730000000000000E+00    2.5542000000000005E+01
Au    6.2190000000000012E+00    6.2190000000000012E+00    2.5542000000000005E+01
Au    0.0000000000000000E+00    2.0730000000000000E+00    2.7614999999999998E+01
Au    0.0000000000000000E+00    6.2190000000000012E+00    2.7614999999999998E+01
Au    2.0730000000000000E+00    0.0000000000000000E+00    2.7614999999999998E+01
Au    2.0730000000000000E+00    4.1459999999999999E+00    2.7614999999999998E+01
Au    4.1459999999999999E+00    2.0730000000000000E+00    2.7614999999999998E+01
Au    4.1459999999999999E+00    6.2190000000000012E+00    2.7614999999999998E+01
Au    6.2190000000000012E+00    0.0000000000000000E+00    2.7614999999999998E+01
Au    6.2190000000000012E+00    4.1459999999999999E+00    2.7614999999999998E+01
Au    0.0000000000000000E+00    0.0000000000000000E+00    2.9688000000000002E+01
Au    0.0000000000000000E+00    4.1459999999999999E+00    2.9688000000000002E+01
Au    2.0730000000000000E+00    2.0730000000000000E+00    2.9688000000000002E+01
Au    2.0730000000000000E+00    6.2190000000000012E+00    2.9688000000000002E+01
Au    4.1459999999999999E+00    0.0000000000000000E+00    2.9688000000000002E+01
Au    4.1459999999999999E+00    4.1459999999999999E+00    2.9688000000000002E+01
Au    6.2190000000000012E+00    2.0730000000000000E+00    2.9688000000000002E+01
Au    6.2190000000000012E+00    6.2190000000000012E+00    2.9688000000000002E+01
Au    0.0000000000000000E+00    2.0730000000000000E+00    3.1760999999999999E+01
Au    0.0000000000000000E+00    6.2190000000000012E+00    3.1760999999999999E+01
Au    2.0730000000000000E+00    0.0000000000000000E+00    3.1760999999999999E+01
Au    2.0730000000000000E+00    4.1459999999999999E+00    3.1760999999999999E+01
Au    4.1459999999999999E+00    2.0730000000000000E+00    3.1760999999999999E+01
Au    4.1459999999999999E+00    6.2190000000000012E+00    3.1760999999999999E+01
Au    6.2190000000000012E+00    0.0000000000000000E+00    3.1760999999999999E+01
Au    6.2190000000000012E+00    4.1459999999999999E+00    3.1760999999999999E+01
     &END COORD
     &KIND Au
       BASIS_SET SZV-MOLOPT-SR-GTH
       POTENTIAL GTH-PADE-q11
       &POTENTIAL
 1 0 10
  0.5900000000000000E+00 1  0.1160442790000000E+02
 3
  0.5211797500000001E+00 2  0.2538613590000000E+01 -0.1046136640000000E+01
  0.2701113200000000E+01
  0.6306130599999999E+00 2  0.3948527000000000E+00 -0.8695921300000000E+00
  0.2057830560000000E+01
  0.4407064300000000E+00 2 -0.4719069660000000E+01  0.7277708100000000E+00
 -0.1650429070000000E+01
         # Potential name:  GTH-PADE-Q11  for symbol:  AU
         # Potential read from the potential filename: GTH_POTENTIALS
       &END POTENTIAL
     &END KIND
     &KIND C
       BASIS_SET DZVP-MOLOPT-SR-GTH
       ELEMENT C
       POTENTIAL GTH-PADE-q4
       &POTENTIAL
 2 2
  0.3488304500000000E+00 2 -0.8513771100000000E+01  0.1228432030000000E+01
 2
  0.3045532100000000E+00 1  0.9522841789999999E+01
  0.2326773000000000E+00 0
         # Potential name:  GTH-PADE-Q4  for symbol:  C
         # Potential read from the potential filename: GTH_POTENTIALS
       &END POTENTIAL
     &END KIND
     &KIND S
       BASIS_SET DZVP-MOLOPT-SR-GTH
       ELEMENT S
       POTENTIAL GTH-PADE-q6
       &POTENTIAL
 2 4
  0.4200000000000000E+00 1 -0.6554491840000000E+01
 2
  0.3617566500000000E+00 2  0.7905302500000000E+01 -0.1731881300000000E+01
  0.4471698300000000E+01
  0.4052850200000000E+00 1  0.3866579000000000E+01
         # Potential name:  GTH-PADE-Q6  for symbol:  S
         # Potential read from the potential filename: GTH_POTENTIALS
       &END POTENTIAL
     &END KIND
     &KIND H
       BASIS_SET DZVP-MOLOPT-SR-GTH
       ELEMENT H
       POTENTIAL GTH-PADE-q1
       &POTENTIAL
 1
  0.2000000000000000E+00 2 -0.4180236800000000E+01  0.7250748200000000E+00
 0
         # Potential name:  GTH-PADE-Q1  for symbol:  H
         # Potential read from the potential filename: GTH_POTENTIALS
       &END POTENTIAL
     &END KIND
     &TOPOLOGY
       COORD_FILE_NAME em.xyz
       COORD_FILE_FORMAT  XYZ
       NUMBER_OF_ATOMS  116
       MULTIPLE_UNIT_CELL  1 1 1
     &END TOPOLOGY
   &END SUBSYS
 &END FORCE_EVAL
