 # Version information for this restart file 
 # current date 2023-02-22 11:10:51.377
 # current working dir /work4/scd/scarf1157/work/testing/cp2k-smeagol/bdt/cp2k/hollow-site/transport-cp2k/5-4/geometry-ordered/3x3-4/sz/bulk_layers-4/geo_opt/dzvp/Au-S-2.75_dft
 # Program compiled at                              Thu 26 Jan 13:39:53 GMT 2023
 # Program compiled on                                     cn1108.scarf.rl.ac.uk
 # Program compiled for                                                    local
 # Source code revision number                                       git:1ef701d
 &GLOBAL
   EXTENDED_FFT_LENGTHS  T
   PRINT_LEVEL  MEDIUM
   PROJECT_NAME dft_wfn
   RUN_TYPE  GEO_OPT
 &END GLOBAL
 &MOTION
   &GEO_OPT
     OPTIMIZER  BFGS
     MAX_ITER  1000
     STEP_START_VAL  10
   &END GEO_OPT
   &CONSTRAINT
     &FIXED_ATOMS
       LIST  1..40 76..116
     &END FIXED_ATOMS
   &END CONSTRAINT
   &PRINT
     &TRAJECTORY  ON
       FORMAT  XMOL
     &END TRAJECTORY
   &END PRINT
 &END MOTION
 &FORCE_EVAL
   METHOD  QS
   &DFT
     BASIS_SET_FILE_NAME BASIS_MOLOPT
     POTENTIAL_FILE_NAME GTH_POTENTIALS
     &SCF
       MAX_SCF  100
       EPS_SCF     9.9999999999999995E-08
       SCF_GUESS  ATOMIC
       ADDED_MOS  100
       &SMEAR  T
         METHOD  FERMI_DIRAC
         ELECTRONIC_TEMPERATURE     2.9300000000000000E+02
       &END SMEAR
       &MIXING  T
         METHOD  BROYDEN_MIXING
         ALPHA     2.9999999999999999E-01
         NBUFFER  8
       &END MIXING
       &PRINT
         &RESTART  SILENT
           FILENAME RESTART_0
         &END RESTART
       &END PRINT
     &END SCF
     &MGRID
       CUTOFF     4.0000000000000000E+02
     &END MGRID
     &XC
       DENSITY_CUTOFF     1.0000000000000000E-10
       GRADIENT_CUTOFF     1.0000000000000000E-10
       TAU_CUTOFF     1.0000000000000000E-10
       &XC_FUNCTIONAL  NO_SHORTCUT
         &PADE  T
         &END PADE
       &END XC_FUNCTIONAL
     &END XC
     &POISSON
       PERIODIC  XYZ
     &END POISSON
     &KPOINTS
       SCHEME MONKHORST-PACK 2 2 1
       SYMMETRY  F
       FULL_GRID  T
       VERBOSE  T
       EPS_GEO     1.0000000000000000E-08
       PARALLEL_GROUP_SIZE  0
     &END KPOINTS
     &PRINT
       &E_DENSITY_CUBE  ON
         STRIDE  2 2 2
       &END E_DENSITY_CUBE
       &V_HARTREE_CUBE  SILENT
         STRIDE  2 2 2
       &END V_HARTREE_CUBE
       &HIRSHFELD  SILENT
         SHAPE_FUNCTION  DENSITY
       &END HIRSHFELD
     &END PRINT
   &END DFT
   &SUBSYS
     &CELL
       A     8.2919999999999998E+00    0.0000000000000000E+00    0.0000000000000000E+00
       B     0.0000000000000000E+00    8.2919999999999998E+00    0.0000000000000000E+00
       C     0.0000000000000000E+00    0.0000000000000000E+00    3.4837000000000003E+01
       PERIODIC  XYZ
       MULTIPLE_UNIT_CELL  1 1 1
     &END CELL
     &COORD
Au    0.0000000000000000E+00    0.0000000000000000E+00    0.0000000000000000E+00
Au    0.0000000000000000E+00    4.1459999999999999E+00    0.0000000000000000E+00
Au    2.0730000000000000E+00    2.0730000000000000E+00    0.0000000000000000E+00
Au    2.0730000000000000E+00    6.2190000000000012E+00    0.0000000000000000E+00
Au    4.1459999999999999E+00    0.0000000000000000E+00    0.0000000000000000E+00
Au    4.1459999999999999E+00    4.1459999999999999E+00    0.0000000000000000E+00
Au    6.2190000000000012E+00    2.0730000000000000E+00    0.0000000000000000E+00
Au    6.2190000000000012E+00    6.2190000000000012E+00    0.0000000000000000E+00
Au    0.0000000000000000E+00    2.0730000000000000E+00    2.0730000000000000E+00
Au    0.0000000000000000E+00    6.2190000000000012E+00    2.0730000000000000E+00
Au    2.0730000000000000E+00    0.0000000000000000E+00    2.0730000000000000E+00
Au    2.0730000000000000E+00    4.1459999999999999E+00    2.0730000000000000E+00
Au    4.1459999999999999E+00    2.0730000000000000E+00    2.0730000000000000E+00
Au    4.1459999999999999E+00    6.2190000000000012E+00    2.0730000000000000E+00
Au    6.2190000000000012E+00    0.0000000000000000E+00    2.0730000000000000E+00
Au    6.2190000000000012E+00    4.1459999999999999E+00    2.0730000000000000E+00
Au    0.0000000000000000E+00    0.0000000000000000E+00    4.1459999999999999E+00
Au    0.0000000000000000E+00    4.1459999999999999E+00    4.1459999999999999E+00
Au    2.0730000000000000E+00    2.0730000000000000E+00    4.1459999999999999E+00
Au    2.0730000000000000E+00    6.2190000000000012E+00    4.1459999999999999E+00
Au    4.1459999999999999E+00    0.0000000000000000E+00    4.1459999999999999E+00
Au    4.1459999999999999E+00    4.1459999999999999E+00    4.1459999999999999E+00
Au    6.2190000000000012E+00    2.0730000000000000E+00    4.1459999999999999E+00
Au    6.2190000000000012E+00    6.2190000000000012E+00    4.1459999999999999E+00
Au    0.0000000000000000E+00    2.0730000000000000E+00    6.2190000000000012E+00
Au    0.0000000000000000E+00    6.2190000000000012E+00    6.2190000000000012E+00
Au    2.0730000000000000E+00    0.0000000000000000E+00    6.2190000000000012E+00
Au    2.0730000000000000E+00    4.1459999999999999E+00    6.2190000000000012E+00
Au    4.1459999999999999E+00    2.0730000000000000E+00    6.2190000000000012E+00
Au    4.1459999999999999E+00    6.2190000000000012E+00    6.2190000000000012E+00
Au    6.2190000000000012E+00    0.0000000000000000E+00    6.2190000000000012E+00
Au    6.2190000000000012E+00    4.1459999999999999E+00    6.2190000000000012E+00
Au    0.0000000000000000E+00    0.0000000000000000E+00    8.2919999999999998E+00
Au    0.0000000000000000E+00    4.1459999999999999E+00    8.2919999999999998E+00
Au    2.0730000000000000E+00    2.0730000000000000E+00    8.2919999999999998E+00
Au    2.0730000000000000E+00    6.2190000000000012E+00    8.2919999999999998E+00
Au    4.1459999999999999E+00    0.0000000000000000E+00    8.2919999999999998E+00
Au    4.1459999999999999E+00    4.1459999999999999E+00    8.2919999999999998E+00
Au    6.2190000000000012E+00    2.0730000000000000E+00    8.2919999999999998E+00
Au    6.2190000000000012E+00    6.2190000000000012E+00    8.2919999999999998E+00
Au    3.9667514129114180E-04    2.0731908715747474E+00    1.0415448424349677E+01
Au    1.2743586024171742E-04    6.2180727121074355E+00    1.0344570485026106E+01
Au    2.0880791115561053E+00    2.5304505070184377E-02    1.0387995822633942E+01
Au    2.0887556575547084E+00    4.1199835801041989E+00    1.0390266545152679E+01
Au    4.1460024217480127E+00    2.0738990573549945E+00    1.0420501076777398E+01
Au    4.1460584692407645E+00    6.2176600625454554E+00    1.0388945707309146E+01
Au    6.2041825689574344E+00    2.5271205539077007E-02    1.0387875208113350E+01
Au    6.2035046401980987E+00    4.1200158106401172E+00    1.0390149004635131E+01
Au    5.3155930916456722E-05   -3.1653496830956418E-02    1.2470566220968442E+01
Au    5.6618462713631000E-05    4.1765449504067265E+00    1.2470710344297611E+01
Au    1.9948147568399266E+00    2.0705344425912142E+00    1.2560582827208114E+01
Au    2.0315570931010010E+00    6.2202074683594004E+00    1.2460093848026446E+01
Au    4.1464098139338326E+00   -9.5082648742475642E-02    1.2515886401862625E+01
Au    4.1464155430479437E+00    4.2457744583524297E+00    1.2522342749730669E+01
Au    6.2974513569027275E+00    2.0705386666654411E+00    1.2559785671250127E+01
Au    6.2606376837219653E+00    6.2202144843924314E+00    1.2460210236442817E+01
S    4.1448098397641564E+00    2.0847098042796390E+00    1.4235283946585703E+01
C    4.1427211265132158E+00    2.0815238218625396E+00    1.6013585701476764E+01
H    1.9954510663325420E+00    2.0803835696867958E+00    1.6180400433832467E+01
H    6.2897794945933940E+00    2.0802071428495168E+00    1.6186109151769593E+01
C    2.9399095908760962E+00    2.0773143317652885E+00    1.6726508469299286E+01
C    5.3437875208282097E+00    2.0771785010356862E+00    1.6729558680119542E+01
C    2.9382751503212119E+00    2.0689445239061364E+00    1.8111960011618503E+01
C    5.3416968550189239E+00    2.0688047047166762E+00    1.8115003552470366E+01
H    1.9917815185963028E+00    2.0650754273849636E+00    1.8654213519504022E+01
H    6.2866796665360658E+00    2.0648363530722191E+00    1.8659883661540476E+01
C    4.1390636771832110E+00    2.0650014384860946E+00    1.8829192613736772E+01
S    4.1382590243261239E+00    2.0623657362008383E+00    2.0608867844696384E+01
Au   -7.9981040905713757E-03   -2.3511327390232817E-02    2.2379676904530932E+01
Au   -8.5938778978778933E-03    4.1703239824258320E+00    2.2378768826234619E+01
Au    1.9908340157852913E+00    2.0744851327717355E+00    2.2327903995969962E+01
Au    2.0368981402779327E+00    6.2176591265581598E+00    2.2375691161175340E+01
Au    4.1320043768470720E+00   -7.6185619105758731E-02    2.2351415812431657E+01
Au    4.1330527706725144E+00    4.2179701782658592E+00    2.2354605233376866E+01
Au    6.2858507679778590E+00    2.0741954004027767E+00    2.2331314393352347E+01
Au    6.2190000000000012E+00    6.2190000000000012E+00    2.2399000000000001E+01
Au    0.0000000000000000E+00    2.0730000000000000E+00    2.4472000000000001E+01
Au    0.0000000000000000E+00    6.2190000000000012E+00    2.4472000000000001E+01
Au    2.0730000000000000E+00    0.0000000000000000E+00    2.4472000000000001E+01
Au    2.0730000000000000E+00    4.1459999999999999E+00    2.4472000000000001E+01
Au    4.1459999999999999E+00    2.0730000000000000E+00    2.4472000000000001E+01
Au    4.1459999999999999E+00    6.2190000000000012E+00    2.4472000000000001E+01
Au    6.2190000000000012E+00    0.0000000000000000E+00    2.4472000000000001E+01
Au    6.2190000000000012E+00    4.1459999999999999E+00    2.4472000000000001E+01
Au    0.0000000000000000E+00    0.0000000000000000E+00    2.6545000000000002E+01
Au    0.0000000000000000E+00    4.1459999999999999E+00    2.6545000000000002E+01
Au    2.0730000000000000E+00    2.0730000000000000E+00    2.6545000000000002E+01
Au    2.0730000000000000E+00    6.2190000000000012E+00    2.6545000000000002E+01
Au    4.1459999999999999E+00    0.0000000000000000E+00    2.6545000000000002E+01
Au    4.1459999999999999E+00    4.1459999999999999E+00    2.6545000000000002E+01
Au    6.2190000000000012E+00    2.0730000000000000E+00    2.6545000000000002E+01
Au    6.2190000000000012E+00    6.2190000000000012E+00    2.6545000000000002E+01
Au    0.0000000000000000E+00    2.0730000000000000E+00    2.8618000000000002E+01
Au    0.0000000000000000E+00    6.2190000000000012E+00    2.8618000000000002E+01
Au    2.0730000000000000E+00    0.0000000000000000E+00    2.8618000000000002E+01
Au    2.0730000000000000E+00    4.1459999999999999E+00    2.8618000000000002E+01
Au    4.1459999999999999E+00    2.0730000000000000E+00    2.8618000000000002E+01
Au    4.1459999999999999E+00    6.2190000000000012E+00    2.8618000000000002E+01
Au    6.2190000000000012E+00    0.0000000000000000E+00    2.8618000000000002E+01
Au    6.2190000000000012E+00    4.1459999999999999E+00    2.8618000000000002E+01
Au    0.0000000000000000E+00    0.0000000000000000E+00    3.0690999999999999E+01
Au    0.0000000000000000E+00    4.1459999999999999E+00    3.0690999999999999E+01
Au    2.0730000000000000E+00    2.0730000000000000E+00    3.0690999999999999E+01
Au    2.0730000000000000E+00    6.2190000000000012E+00    3.0690999999999999E+01
Au    4.1459999999999999E+00    0.0000000000000000E+00    3.0690999999999999E+01
Au    4.1459999999999999E+00    4.1459999999999999E+00    3.0690999999999999E+01
Au    6.2190000000000012E+00    2.0730000000000000E+00    3.0690999999999999E+01
Au    6.2190000000000012E+00    6.2190000000000012E+00    3.0690999999999999E+01
Au    0.0000000000000000E+00    2.0730000000000000E+00    3.2764000000000003E+01
Au    0.0000000000000000E+00    6.2190000000000012E+00    3.2764000000000003E+01
Au    2.0730000000000000E+00    0.0000000000000000E+00    3.2764000000000003E+01
Au    2.0730000000000000E+00    4.1459999999999999E+00    3.2764000000000003E+01
Au    4.1459999999999999E+00    2.0730000000000000E+00    3.2764000000000003E+01
Au    4.1459999999999999E+00    6.2190000000000012E+00    3.2764000000000003E+01
Au    6.2190000000000012E+00    0.0000000000000000E+00    3.2764000000000003E+01
Au    6.2190000000000012E+00    4.1459999999999999E+00    3.2764000000000003E+01
     &END COORD
     &KIND Au
       BASIS_SET SZV-MOLOPT-SR-GTH
       POTENTIAL GTH-PADE-q11
       &POTENTIAL
 1 0 10
  0.5900000000000000E+00 1  0.1160442790000000E+02
 3
  0.5211797500000001E+00 2  0.2538613590000000E+01 -0.1046136640000000E+01
  0.2701113200000000E+01
  0.6306130599999999E+00 2  0.3948527000000000E+00 -0.8695921300000000E+00
  0.2057830560000000E+01
  0.4407064300000000E+00 2 -0.4719069660000000E+01  0.7277708100000000E+00
 -0.1650429070000000E+01
         # Potential name:  GTH-PADE-Q11  for symbol:  AU
         # Potential read from the potential filename: GTH_POTENTIALS
       &END POTENTIAL
     &END KIND
     &KIND C
       BASIS_SET DZVP-MOLOPT-SR-GTH
       ELEMENT C
       POTENTIAL GTH-PADE-q4
       &POTENTIAL
 2 2
  0.3488304500000000E+00 2 -0.8513771100000000E+01  0.1228432030000000E+01
 2
  0.3045532100000000E+00 1  0.9522841789999999E+01
  0.2326773000000000E+00 0
         # Potential name:  GTH-PADE-Q4  for symbol:  C
         # Potential read from the potential filename: GTH_POTENTIALS
       &END POTENTIAL
     &END KIND
     &KIND S
       BASIS_SET DZVP-MOLOPT-SR-GTH
       ELEMENT S
       POTENTIAL GTH-PADE-q6
       &POTENTIAL
 2 4
  0.4200000000000000E+00 1 -0.6554491840000000E+01
 2
  0.3617566500000000E+00 2  0.7905302500000000E+01 -0.1731881300000000E+01
  0.4471698300000000E+01
  0.4052850200000000E+00 1  0.3866579000000000E+01
         # Potential name:  GTH-PADE-Q6  for symbol:  S
         # Potential read from the potential filename: GTH_POTENTIALS
       &END POTENTIAL
     &END KIND
     &KIND H
       BASIS_SET DZVP-MOLOPT-SR-GTH
       ELEMENT H
       POTENTIAL GTH-PADE-q1
       &POTENTIAL
 1
  0.2000000000000000E+00 2 -0.4180236800000000E+01  0.7250748200000000E+00
 0
         # Potential name:  GTH-PADE-Q1  for symbol:  H
         # Potential read from the potential filename: GTH_POTENTIALS
       &END POTENTIAL
     &END KIND
     &TOPOLOGY
       COORD_FILE_NAME em.xyz
       COORD_FILE_FORMAT  XYZ
       NUMBER_OF_ATOMS  116
       MULTIPLE_UNIT_CELL  1 1 1
     &END TOPOLOGY
   &END SUBSYS
 &END FORCE_EVAL
