SystemName                   IV          # Descriptive name of the system
SystemLabel                     IV               # Short name for naming files
NumberOfAtoms    183
NumberOfSpecies                 7               # Number of species
PAO.BasisType                   split
%block ChemicalSpeciesLabel
1 79 Au_bulk
2 7 N
3 6  C
4 1  H
5 79 Au
6 79 Au_surf
7 79 Au_tip
%endblock ChemicalSpeciesLabel
%block PAO.BasisSizes
C DZP
H DZP
N DZP
Au_surf DZP
Au_tip DZP
%endblock PAO.BasisSizes
%block PAO.Basis
  Au_bulk  2
n=6  0  1
6.500
1.00
n=5  2  1
5.850
1.00
  Au  2
n=6  0  1
6.500
1.00
n=5  2  1
5.850
1.00
%endblock PAO.Basis
LatticeConstant 1.000 Ang
%block LatticeVectors
   14.582     0.000   0.000        1
  0.000    8.866     0.000   1
  0.000   0.000    35.532  1
%endblock LatticeVectors
AtomicCoordinatesFormat Ang
%block AtomicCoordinatesAndAtomicSpecies
0.0 0.0 0.0 1 Au_bulk
0.0 2.955 0.0 1 Au_bulk
0.0 5.911 0.0 1 Au_bulk
2.956 0.0 0.0 1 Au_bulk
2.956 2.955 0.0 1 Au_bulk
2.956 5.911 0.0 1 Au_bulk
5.912 0.0 0.0 1 Au_bulk
5.912 2.955 0.0 1 Au_bulk
5.912 5.911 0.0 1 Au_bulk
8.67 0.0 0.0 1 Au_bulk
8.67 2.955 0.0 1 Au_bulk
8.67 5.911 0.0 1 Au_bulk
11.626 0.0 0.0 1 Au_bulk
11.626 2.955 0.0 1 Au_bulk
11.626 5.911 0.0 1 Au_bulk
1.478 1.478 2.09 1 Au_bulk
1.478 4.433 2.09 1 Au_bulk
1.478 7.389 2.09 1 Au_bulk
4.434 1.478 2.09 1 Au_bulk
4.434 4.433 2.09 1 Au_bulk
4.434 7.389 2.09 1 Au_bulk
7.192 1.478 2.09 1 Au_bulk
7.192 4.433 2.09 1 Au_bulk
7.192 7.389 2.09 1 Au_bulk
10.148 1.478 2.09 1 Au_bulk
10.148 4.433 2.09 1 Au_bulk
10.148 7.389 2.09 1 Au_bulk
13.104 1.478 2.09 1 Au_bulk
13.104 4.433 2.09 1 Au_bulk
13.104 7.389 2.09 1 Au_bulk
0.0 0.0 4.18 1 Au_bulk
0.0 2.955 4.18 1 Au_bulk
0.0 5.911 4.18 1 Au_bulk
2.956 0.0 4.18 1 Au_bulk
2.956 2.955 4.18 1 Au_bulk
2.956 5.911 4.18 1 Au_bulk
5.912 0.0 4.18 1 Au_bulk
5.912 2.955 4.18 1 Au_bulk
5.912 5.911 4.18 1 Au_bulk
8.67 0.0 4.18 1 Au_bulk
8.67 2.955 4.18 1 Au_bulk
8.67 5.911 4.18 1 Au_bulk
11.626 0.0 4.18 1 Au_bulk
11.626 2.955 4.18 1 Au_bulk
11.626 5.911 4.18 1 Au_bulk
1.478 1.478 6.27 1 Au_bulk
1.478 4.433 6.27 1 Au_bulk
1.478 7.389 6.27 1 Au_bulk
4.434 1.478 6.27 1 Au_bulk
4.434 4.433 6.27 1 Au_bulk
4.434 7.389 6.27 1 Au_bulk
7.192 1.478 6.27 1 Au_bulk
7.192 4.433 6.27 1 Au_bulk
7.192 7.389 6.27 1 Au_bulk
10.148 1.478 6.27 1 Au_bulk
10.148 4.433 6.27 1 Au_bulk
10.148 7.389 6.27 1 Au_bulk
13.104 1.478 6.27 1 Au_bulk
13.104 4.433 6.27 1 Au_bulk
13.104 7.389 6.27 1 Au_bulk
0.0 0.0 8.36 5 Au
0.0 2.955 8.36 5 Au
0.0 5.911 8.36 5 Au
2.956 0.0 8.36 5 Au
2.956 2.955 8.36 5 Au
2.956 5.911 8.36 5 Au
5.912 0.0 8.36 5 Au
5.912 2.955 8.36 5 Au
5.912 5.911 8.36 5 Au
8.67 0.0 8.36 5 Au
8.67 2.955 8.36 5 Au
8.67 5.911 8.36 5 Au
11.626 0.0 8.36 5 Au
11.626 2.955 8.36 5 Au
11.626 5.911 8.36 5 Au
1.478 1.478 10.45 6 Au_surf
1.478 4.433 10.45 6 Au_surf
1.478 7.389 10.45 6 Au_surf
4.434 1.478 10.45 6 Au_surf
4.434 4.433 10.45 6 Au_surf
4.434 7.389 10.45 6 Au_surf
7.192 1.478 10.45 6 Au_surf
7.192 4.433 10.45 6 Au_surf
7.192 7.389 10.45 6 Au_surf
10.148 1.478 10.45 6 Au_surf
10.148 4.433 10.45 6 Au_surf
10.148 7.389 10.45 6 Au_surf
13.104 1.478 10.45 6 Au_surf
13.104 4.433 10.45 6 Au_surf
13.104 7.389 10.45 6 Au_surf
4.8554 5.9119 12.0318 2 N
9.528 5.9137 12.034 2 N
7.192 5.934 12.04 2 N
4.0673339928 5.905999322 12.6877413689 4 H
10.3189054048 5.9087793826 12.6857470732 4 H
8.3738707293 5.9179777707 12.7314572522 3 C
5.9989554222 5.9152564166 12.7926424112 3 C
8.3227525762 5.9051536095 14.0804976421 2 N
5.9344285049 5.8981604865 14.1017499696 2 N
7.1039653577 5.8899410689 14.8287032191 3 C
7.2416021047 5.8657702092 16.1064667573 2 N
9.1743570613 5.8876302392 14.6410177353 4 H
7.2673 6.7195 16.742 4 H
7.312 5.934 21.043 7 Au_tip
5.813 7.434 22.992 7 Au_tip
8.813 4.434 22.992 7 Au_tip
5.813 4.433 22.992 7 Au_tip
8.813 7.434 22.992 7 Au_tip
1.478 1.478 25.082 5 Au
1.478 4.433 25.082 5 Au
1.478 7.389 25.082 5 Au
4.434 1.478 25.082 5 Au
4.434 4.433 25.082 5 Au
4.434 7.389 25.082 5 Au
7.192 1.478 25.082 5 Au
7.192 4.433 25.082 5 Au
7.192 7.389 25.082 5 Au
10.148 1.478 25.082 5 Au
10.148 4.433 25.082 5 Au
10.148 7.389 25.082 5 Au
13.104 1.478 25.082 5 Au
13.104 4.433 25.082 5 Au
13.104 7.389 25.082 5 Au
0.0 0.0 27.172 1 Au_bulk
0.0 2.955 27.172 1 Au_bulk
0.0 5.911 27.172 1 Au_bulk
2.956 0.0 27.172 1 Au_bulk
2.956 2.955 27.172 1 Au_bulk
2.956 5.911 27.172 1 Au_bulk
5.912 0.0 27.172 1 Au_bulk
5.912 2.955 27.172 1 Au_bulk
5.912 5.911 27.172 1 Au_bulk
8.67 0.0 27.172 1 Au_bulk
8.67 2.955 27.172 1 Au_bulk
8.67 5.911 27.172 1 Au_bulk
11.626 0.0 27.172 1 Au_bulk
11.626 2.955 27.172 1 Au_bulk
11.626 5.911 27.172 1 Au_bulk
1.478 1.478 29.262 1 Au_bulk
1.478 4.433 29.262 1 Au_bulk
1.478 7.389 29.262 1 Au_bulk
4.434 1.478 29.262 1 Au_bulk
4.434 4.433 29.262 1 Au_bulk
4.434 7.389 29.262 1 Au_bulk
7.192 1.478 29.262 1 Au_bulk
7.192 4.433 29.262 1 Au_bulk
7.192 7.389 29.262 1 Au_bulk
10.148 1.478 29.262 1 Au_bulk
10.148 4.433 29.262 1 Au_bulk
10.148 7.389 29.262 1 Au_bulk
13.104 1.478 29.262 1 Au_bulk
13.104 4.433 29.262 1 Au_bulk
13.104 7.389 29.262 1 Au_bulk
0.0 0.0 31.352 1 Au_bulk
0.0 2.955 31.352 1 Au_bulk
0.0 5.911 31.352 1 Au_bulk
2.956 0.0 31.352 1 Au_bulk
2.956 2.955 31.352 1 Au_bulk
2.956 5.911 31.352 1 Au_bulk
5.912 0.0 31.352 1 Au_bulk
5.912 2.955 31.352 1 Au_bulk
5.912 5.911 31.352 1 Au_bulk
8.67 0.0 31.352 1 Au_bulk
8.67 2.955 31.352 1 Au_bulk
8.67 5.911 31.352 1 Au_bulk
11.626 0.0 31.352 1 Au_bulk
11.626 2.955 31.352 1 Au_bulk
11.626 5.911 31.352 1 Au_bulk
1.478 1.478 33.442 1 Au_bulk
1.478 4.433 33.442 1 Au_bulk
1.478 7.389 33.442 1 Au_bulk
4.434 1.478 33.442 1 Au_bulk
4.434 4.433 33.442 1 Au_bulk
4.434 7.389 33.442 1 Au_bulk
7.192 1.478 33.442 1 Au_bulk
7.192 4.433 33.442 1 Au_bulk
7.192 7.389 33.442 1 Au_bulk
10.148 1.478 33.442 1 Au_bulk
10.148 4.433 33.442 1 Au_bulk
10.148 7.389 33.442 1 Au_bulk
13.104 1.478 33.442 1 Au_bulk
13.104 4.433 33.442 1 Au_bulk
13.104 7.389 33.442 1 Au_bulk
%endblock AtomicCoordinatesAndAtomicSpecies 	
%block kgrid_Monkhorst_Pack
  2   0   0     0.0
  0   4   0     0.0
  0   0   1     0.0
%endblock kgrid_Monkhorst_Pack
xc.functional		LDA		# 'LDA', 'GGA'
xc.authors 	 		CA		# 'CA'='PZ', 'PW92', 'PBE'
SpinPolarized			F		# 'T', 'F'		
#FixSpin           F
#TotalSpin        0.0
NonCollinearSpin		F		# 'T', 'F'
MeshCutoff 	 		    200 Ry		# Equivalent plane wave cutoff for the grid
MaxSCFIterations		500
DM.MixingWeight			0.1
DM.NumberPulay			4	# Pulay convergency accelerator
DM.MixSCF1			    T
MixHamiltonian      T
DM.PulayOnFile			F		# Store in memory ('F') or in files ('T')
#DM.NumberKick         30
#DM.KickMixingWeight   0.1
DM.Tolerance 		1.0E-4
NeglNonOverlapInt		F		# 'F'=do not neglect
SolutionMethod			diagon
ElectronicTemperature		300 K		# Default value
DM.UseSaveDM 			T
#MD.UseSaveXV			T
#MD.UseSaveCG			T
WriteForces      T
WriteCoorXmol			T		# Write Atoms coordinates
SaveElectrostaticPotential      T
#SaveHS				T		# Save the Hamiltonian and Overlap matrices
SaveRho				T		# Save the valence pseudocharge density
#SaveDeltaRho			T
#WriteDenchar			T		# Write Denchar output
WriteMullikenPop		0 #write mulliken population of aromic and orbital charges
#-----
#smeagol
#-----
# Perform a transport calculation
EMTransport              T
# Set number of energy points for integrals
NEnergReal               64
# Set bias range
VInitial             -1 eV
VFinal                1 eV
NIVPoints                4
# General variables
Delta                    1e-4
EnergLowestBound    -100.0 eV
# Print transmission coefficient
TrCoefficients           F
InitTransmRange      -10.0 eV
FinalTransmRange      10.0 eV
NTransmPoints            800
TRC.EMDOS                T
TRC.LeadsDOS             T
# Matching of Hartree potential with the leads
HartreeLeadsBottom  -15.36721897 eV
%block SaveBiasSteps
 0 1 2 3
%endblock SaveBiasSteps
