 # Version information for this restart file 
 # current date 2023-02-22 11:31:11.225
 # current working dir /work4/scd/scarf1157/work/testing/cp2k-smeagol/bdt/cp2k/hollow-site/transport-cp2k/5-4/geometry-ordered/3x3-4/sz/bulk_layers-4/geo_opt/dzvp/Au-S-2.4_dft_cg
 # Program compiled at                              Thu 26 Jan 13:39:53 GMT 2023
 # Program compiled on                                     cn1108.scarf.rl.ac.uk
 # Program compiled for                                                    local
 # Source code revision number                                       git:1ef701d
 &GLOBAL
   EXTENDED_FFT_LENGTHS  T
   PRINT_LEVEL  MEDIUM
   PROJECT_NAME dft_wfn
   RUN_TYPE  GEO_OPT
 &END GLOBAL
 &MOTION
   &GEO_OPT
     OPTIMIZER  CG
     MAX_ITER  1000
     STEP_START_VAL  4
   &END GEO_OPT
   &CONSTRAINT
     &FIXED_ATOMS
       LIST  1..40 76..116
     &END FIXED_ATOMS
   &END CONSTRAINT
   &PRINT
     &TRAJECTORY  ON
       FORMAT  XMOL
     &END TRAJECTORY
   &END PRINT
 &END MOTION
 &FORCE_EVAL
   METHOD  QS
   &DFT
     BASIS_SET_FILE_NAME BASIS_MOLOPT
     POTENTIAL_FILE_NAME GTH_POTENTIALS
     &SCF
       MAX_SCF  100
       EPS_SCF     9.9999999999999995E-08
       SCF_GUESS  ATOMIC
       ADDED_MOS  100
       &SMEAR  T
         METHOD  FERMI_DIRAC
         ELECTRONIC_TEMPERATURE     2.9300000000000000E+02
       &END SMEAR
       &MIXING  T
         METHOD  BROYDEN_MIXING
         ALPHA     2.9999999999999999E-01
         NBUFFER  8
       &END MIXING
       &PRINT
         &RESTART  SILENT
           FILENAME RESTART_0
         &END RESTART
       &END PRINT
     &END SCF
     &MGRID
       CUTOFF     4.0000000000000000E+02
     &END MGRID
     &XC
       DENSITY_CUTOFF     1.0000000000000000E-10
       GRADIENT_CUTOFF     1.0000000000000000E-10
       TAU_CUTOFF     1.0000000000000000E-10
       &XC_FUNCTIONAL  NO_SHORTCUT
         &PADE  T
         &END PADE
       &END XC_FUNCTIONAL
     &END XC
     &POISSON
       PERIODIC  XYZ
     &END POISSON
     &KPOINTS
       SCHEME MONKHORST-PACK 2 2 1
       SYMMETRY  F
       FULL_GRID  T
       VERBOSE  T
       EPS_GEO     1.0000000000000000E-08
       PARALLEL_GROUP_SIZE  0
     &END KPOINTS
     &PRINT
       &E_DENSITY_CUBE  ON
         STRIDE  2 2 2
       &END E_DENSITY_CUBE
       &V_HARTREE_CUBE  SILENT
         STRIDE  2 2 2
       &END V_HARTREE_CUBE
       &HIRSHFELD  SILENT
         SHAPE_FUNCTION  DENSITY
       &END HIRSHFELD
     &END PRINT
   &END DFT
   &SUBSYS
     &CELL
       A     8.2919999999999998E+00    0.0000000000000000E+00    0.0000000000000000E+00
       B     0.0000000000000000E+00    8.2919999999999998E+00    0.0000000000000000E+00
       C     0.0000000000000000E+00    0.0000000000000000E+00    3.3642000000000003E+01
       PERIODIC  XYZ
       MULTIPLE_UNIT_CELL  1 1 1
     &END CELL
     &COORD
Au    0.0000000000000000E+00    0.0000000000000000E+00    0.0000000000000000E+00
Au    0.0000000000000000E+00    4.1459999999999999E+00    0.0000000000000000E+00
Au    2.0730000000000000E+00    2.0730000000000000E+00    0.0000000000000000E+00
Au    2.0730000000000000E+00    6.2190000000000012E+00    0.0000000000000000E+00
Au    4.1459999999999999E+00    0.0000000000000000E+00    0.0000000000000000E+00
Au    4.1459999999999999E+00    4.1459999999999999E+00    0.0000000000000000E+00
Au    6.2190000000000012E+00    2.0730000000000000E+00    0.0000000000000000E+00
Au    6.2190000000000012E+00    6.2190000000000012E+00    0.0000000000000000E+00
Au    0.0000000000000000E+00    2.0730000000000000E+00    2.0730000000000000E+00
Au    0.0000000000000000E+00    6.2190000000000012E+00    2.0730000000000000E+00
Au    2.0730000000000000E+00    0.0000000000000000E+00    2.0730000000000000E+00
Au    2.0730000000000000E+00    4.1459999999999999E+00    2.0730000000000000E+00
Au    4.1459999999999999E+00    2.0730000000000000E+00    2.0730000000000000E+00
Au    4.1459999999999999E+00    6.2190000000000012E+00    2.0730000000000000E+00
Au    6.2190000000000012E+00    0.0000000000000000E+00    2.0730000000000000E+00
Au    6.2190000000000012E+00    4.1459999999999999E+00    2.0730000000000000E+00
Au    0.0000000000000000E+00    0.0000000000000000E+00    4.1459999999999999E+00
Au    0.0000000000000000E+00    4.1459999999999999E+00    4.1459999999999999E+00
Au    2.0730000000000000E+00    2.0730000000000000E+00    4.1459999999999999E+00
Au    2.0730000000000000E+00    6.2190000000000012E+00    4.1459999999999999E+00
Au    4.1459999999999999E+00    0.0000000000000000E+00    4.1459999999999999E+00
Au    4.1459999999999999E+00    4.1459999999999999E+00    4.1459999999999999E+00
Au    6.2190000000000012E+00    2.0730000000000000E+00    4.1459999999999999E+00
Au    6.2190000000000012E+00    6.2190000000000012E+00    4.1459999999999999E+00
Au    0.0000000000000000E+00    2.0730000000000000E+00    6.2190000000000012E+00
Au    0.0000000000000000E+00    6.2190000000000012E+00    6.2190000000000012E+00
Au    2.0730000000000000E+00    0.0000000000000000E+00    6.2190000000000012E+00
Au    2.0730000000000000E+00    4.1459999999999999E+00    6.2190000000000012E+00
Au    4.1459999999999999E+00    2.0730000000000000E+00    6.2190000000000012E+00
Au    4.1459999999999999E+00    6.2190000000000012E+00    6.2190000000000012E+00
Au    6.2190000000000012E+00    0.0000000000000000E+00    6.2190000000000012E+00
Au    6.2190000000000012E+00    4.1459999999999999E+00    6.2190000000000012E+00
Au    0.0000000000000000E+00    0.0000000000000000E+00    8.2919999999999998E+00
Au    0.0000000000000000E+00    4.1459999999999999E+00    8.2919999999999998E+00
Au    2.0730000000000000E+00    2.0730000000000000E+00    8.2919999999999998E+00
Au    2.0730000000000000E+00    6.2190000000000012E+00    8.2919999999999998E+00
Au    4.1459999999999999E+00    0.0000000000000000E+00    8.2919999999999998E+00
Au    4.1459999999999999E+00    4.1459999999999999E+00    8.2919999999999998E+00
Au    6.2190000000000012E+00    2.0730000000000000E+00    8.2919999999999998E+00
Au    6.2190000000000012E+00    6.2190000000000012E+00    8.2919999999999998E+00
Au    1.0931175933840771E-05    2.0729864137661984E+00    1.0369901805995447E+01
Au   -9.0047664225496559E-06    6.2189478832919063E+00    1.0361993173592259E+01
Au    2.0721212842992784E+00    6.7433784307046989E-04    1.0355924968329902E+01
Au    2.0720896615553510E+00    4.1453871184871289E+00    1.0355790319461160E+01
Au    4.1460238584683671E+00    2.0728806087095162E+00    1.0297147164977625E+01
Au    4.1459894324644004E+00    6.2187937692746029E+00    1.0365618909955105E+01
Au    6.2198683954547196E+00    6.8043760911912351E-04    1.0355932240584306E+01
Au    6.2199010942161328E+00    4.1453815935810603E+00    1.0355796658805062E+01
Au    2.9374845904687304E-05   -1.9377075129735768E-02    1.2441885285071203E+01
Au    3.0139693552314497E-05    4.1655042695534945E+00    1.2442042786943439E+01
Au    1.9431056312146695E+00    2.0730048461519703E+00    1.2431140907161486E+01
Au    2.0512692641921544E+00    6.2190179872798428E+00    1.2440679014000221E+01
Au    4.1459636238313777E+00   -1.3449663995852992E-01    1.2418658240417340E+01
Au    4.1459640736317329E+00    4.2800214767774909E+00    1.2418788888630319E+01
Au    6.3490146681138269E+00    2.0730057992248310E+00    1.2431105484489805E+01
Au    6.2407165239927993E+00    6.2190187363583265E+00    1.2440655161102599E+01
S    4.1459393674843872E+00    2.0766355856747887E+00    1.3732319736141104E+01
C    4.1435660004821253E+00    2.0843470507589403E+00    1.5481218551949251E+01
H    1.9946884776443814E+00    2.0973230021359544E+00    1.5565887954701198E+01
H    6.2931755909535498E+00    2.0972471752150326E+00    1.5575199608061602E+01
C    2.9207737487972323E+00    2.0799323932457709E+00    1.6133098663287647E+01
C    5.3655739482869071E+00    2.0800124315870225E+00    1.6135042232651969E+01
C    2.9159808812586414E+00    2.0641392380327668E+00    1.7505682986018702E+01
C    5.3607863998200269E+00    2.0641897368671467E+00    1.7507541256023252E+01
H    1.9884597578722687E+00    2.0467979286592177E+00    1.8066375720871740E+01
H    6.2868240218993394E+00    2.0466941667458949E+00    1.8075238507084496E+01
C    4.1382156530121517E+00    2.0600938144648486E+00    1.8159148486453162E+01
S    4.1419311827518746E+00    2.0690815150282642E+00    1.9905815982093948E+01
Au   -3.6733857897915502E-04   -1.8319638667909127E-02    2.1199914108018181E+01
Au   -3.6810518560984274E-04    4.1641667727181524E+00    2.1200091960641892E+01
Au    1.9384220303531934E+00    2.0730500581506885E+00    2.1208229369578280E+01
Au    2.0523955613044316E+00    6.2189486181031794E+00    2.1200905395335727E+01
Au    4.1457705773115672E+00   -1.3806048757326242E-01    2.1220192542729343E+01
Au    4.1457707879675763E+00    4.2845578385079763E+00    2.1220342019436707E+01
Au    6.3538230184981197E+00    2.0730506073432218E+00    2.1208325401279300E+01
Au    6.2190000000000012E+00    6.2190000000000012E+00    2.1204000000000004E+01
Au    0.0000000000000000E+00    2.0730000000000000E+00    2.3277000000000001E+01
Au    0.0000000000000000E+00    6.2190000000000012E+00    2.3277000000000001E+01
Au    2.0730000000000000E+00    0.0000000000000000E+00    2.3277000000000001E+01
Au    2.0730000000000000E+00    4.1459999999999999E+00    2.3277000000000001E+01
Au    4.1459999999999999E+00    2.0730000000000000E+00    2.3277000000000001E+01
Au    4.1459999999999999E+00    6.2190000000000012E+00    2.3277000000000001E+01
Au    6.2190000000000012E+00    0.0000000000000000E+00    2.3277000000000001E+01
Au    6.2190000000000012E+00    4.1459999999999999E+00    2.3277000000000001E+01
Au    0.0000000000000000E+00    0.0000000000000000E+00    2.5350000000000001E+01
Au    0.0000000000000000E+00    4.1459999999999999E+00    2.5350000000000001E+01
Au    2.0730000000000000E+00    2.0730000000000000E+00    2.5350000000000001E+01
Au    2.0730000000000000E+00    6.2190000000000012E+00    2.5350000000000001E+01
Au    4.1459999999999999E+00    0.0000000000000000E+00    2.5350000000000001E+01
Au    4.1459999999999999E+00    4.1459999999999999E+00    2.5350000000000001E+01
Au    6.2190000000000012E+00    2.0730000000000000E+00    2.5350000000000001E+01
Au    6.2190000000000012E+00    6.2190000000000012E+00    2.5350000000000001E+01
Au    0.0000000000000000E+00    2.0730000000000000E+00    2.7423000000000002E+01
Au    0.0000000000000000E+00    6.2190000000000012E+00    2.7423000000000002E+01
Au    2.0730000000000000E+00    0.0000000000000000E+00    2.7423000000000002E+01
Au    2.0730000000000000E+00    4.1459999999999999E+00    2.7423000000000002E+01
Au    4.1459999999999999E+00    2.0730000000000000E+00    2.7423000000000002E+01
Au    4.1459999999999999E+00    6.2190000000000012E+00    2.7423000000000002E+01
Au    6.2190000000000012E+00    0.0000000000000000E+00    2.7423000000000002E+01
Au    6.2190000000000012E+00    4.1459999999999999E+00    2.7423000000000002E+01
Au    0.0000000000000000E+00    0.0000000000000000E+00    2.9495999999999999E+01
Au    0.0000000000000000E+00    4.1459999999999999E+00    2.9495999999999999E+01
Au    2.0730000000000000E+00    2.0730000000000000E+00    2.9495999999999999E+01
Au    2.0730000000000000E+00    6.2190000000000012E+00    2.9495999999999999E+01
Au    4.1459999999999999E+00    0.0000000000000000E+00    2.9495999999999999E+01
Au    4.1459999999999999E+00    4.1459999999999999E+00    2.9495999999999999E+01
Au    6.2190000000000012E+00    2.0730000000000000E+00    2.9495999999999999E+01
Au    6.2190000000000012E+00    6.2190000000000012E+00    2.9495999999999999E+01
Au    0.0000000000000000E+00    2.0730000000000000E+00    3.1569000000000003E+01
Au    0.0000000000000000E+00    6.2190000000000012E+00    3.1569000000000003E+01
Au    2.0730000000000000E+00    0.0000000000000000E+00    3.1569000000000003E+01
Au    2.0730000000000000E+00    4.1459999999999999E+00    3.1569000000000003E+01
Au    4.1459999999999999E+00    2.0730000000000000E+00    3.1569000000000003E+01
Au    4.1459999999999999E+00    6.2190000000000012E+00    3.1569000000000003E+01
Au    6.2190000000000012E+00    0.0000000000000000E+00    3.1569000000000003E+01
Au    6.2190000000000012E+00    4.1459999999999999E+00    3.1569000000000003E+01
     &END COORD
     &KIND Au
       BASIS_SET SZV-MOLOPT-SR-GTH
       POTENTIAL GTH-PADE-q11
       &POTENTIAL
 1 0 10
  0.5900000000000000E+00 1  0.1160442790000000E+02
 3
  0.5211797500000001E+00 2  0.2538613590000000E+01 -0.1046136640000000E+01
  0.2701113200000000E+01
  0.6306130599999999E+00 2  0.3948527000000000E+00 -0.8695921300000000E+00
  0.2057830560000000E+01
  0.4407064300000000E+00 2 -0.4719069660000000E+01  0.7277708100000000E+00
 -0.1650429070000000E+01
         # Potential name:  GTH-PADE-Q11  for symbol:  AU
         # Potential read from the potential filename: GTH_POTENTIALS
       &END POTENTIAL
     &END KIND
     &KIND C
       BASIS_SET DZVP-MOLOPT-SR-GTH
       ELEMENT C
       POTENTIAL GTH-PADE-q4
       &POTENTIAL
 2 2
  0.3488304500000000E+00 2 -0.8513771100000000E+01  0.1228432030000000E+01
 2
  0.3045532100000000E+00 1  0.9522841789999999E+01
  0.2326773000000000E+00 0
         # Potential name:  GTH-PADE-Q4  for symbol:  C
         # Potential read from the potential filename: GTH_POTENTIALS
       &END POTENTIAL
     &END KIND
     &KIND S
       BASIS_SET DZVP-MOLOPT-SR-GTH
       ELEMENT S
       POTENTIAL GTH-PADE-q6
       &POTENTIAL
 2 4
  0.4200000000000000E+00 1 -0.6554491840000000E+01
 2
  0.3617566500000000E+00 2  0.7905302500000000E+01 -0.1731881300000000E+01
  0.4471698300000000E+01
  0.4052850200000000E+00 1  0.3866579000000000E+01
         # Potential name:  GTH-PADE-Q6  for symbol:  S
         # Potential read from the potential filename: GTH_POTENTIALS
       &END POTENTIAL
     &END KIND
     &KIND H
       BASIS_SET DZVP-MOLOPT-SR-GTH
       ELEMENT H
       POTENTIAL GTH-PADE-q1
       &POTENTIAL
 1
  0.2000000000000000E+00 2 -0.4180236800000000E+01  0.7250748200000000E+00
 0
         # Potential name:  GTH-PADE-Q1  for symbol:  H
         # Potential read from the potential filename: GTH_POTENTIALS
       &END POTENTIAL
     &END KIND
     &TOPOLOGY
       COORD_FILE_NAME em.xyz
       COORD_FILE_FORMAT  XYZ
       NUMBER_OF_ATOMS  116
       MULTIPLE_UNIT_CELL  1 1 1
     &END TOPOLOGY
   &END SUBSYS
 &END FORCE_EVAL
