#
SystemName  cntM
SystemLabel cntM
NumberOfSpecies 1
%block ChemicalSpeciesLabel
 1 6 C
%endblock ChemicalSpeciesLabel
# UNIT CELL
LatticeConstant       1.0 Ang
%block LatticeVectors
   20.0000000000  0.0000000000  0.0000000000
   0.0000000000  20.0000000000  0.0000000000
   0.0000000000  0.0000000000  39.6320000000
%endblock LatticeVectors
#cellOrigin           1.666    0.000   14.490
# Chemical species
# ATOMIC POSITIONS
# Atomic coordinates
NumberOfAtoms    192
AtomicCoordinatesFormat Ang
%block AtomicCoordinatesAndAtomicSpecies
   7.1913782761  8.0377560289  0.0000000000 1
   8.2330243224  7.1006842522  0.0000000000 1
   7.7389315538  10.6141122558  0.0000000000 1
   9.0716446604  11.0469225786  0.0000000000 1
   10.7371163229  7.9143311368  0.0000000000 1
   11.0280441238  9.2852034920  0.0000000000 1
   6.9719558762  8.7147965080  1.2385000000 1
   7.2628836771  10.0856688632  1.2385000000 1
   8.9283553396  6.9530774214  1.2385000000 1
   10.2610684462  7.3858877442  1.2385000000 1
   9.7669756776  10.8993157478  1.2385000000 1
   10.8086217239  9.9622439711  1.2385000000 1
   7.1913782761  8.0377560289  2.4770000000 1
   8.2330243224  7.1006842522  2.4770000000 1
   7.7389315538  10.6141122558  2.4770000000 1
   9.0716446604  11.0469225786  2.4770000000 1
   10.7371163229  7.9143311368  2.4770000000 1
   11.0280441238  9.2852034920  2.4770000000 1
   6.9719558762  8.7147965080  3.7155000000 1
   7.2628836771  10.0856688632  3.7155000000 1
   8.9283553396  6.9530774214  3.7155000000 1
   10.2610684462  7.3858877442  3.7155000000 1
   9.7669756776  10.8993157478  3.7155000000 1
   10.8086217239  9.9622439711  3.7155000000 1
   7.1913782761  8.0377560289  4.9540000000 1
   8.2330243224  7.1006842522  4.9540000000 1
   7.7389315538  10.6141122558  4.9540000000 1
   9.0716446604  11.0469225786  4.9540000000 1
   10.7371163229  7.9143311368  4.9540000000 1
   11.0280441238  9.2852034920  4.9540000000 1
   6.9719558762  8.7147965080  6.1925000000 1
   7.2628836771  10.0856688632  6.1925000000 1
   8.9283553396  6.9530774214  6.1925000000 1
   10.2610684462  7.3858877442  6.1925000000 1
   9.7669756776  10.8993157478  6.1925000000 1
   10.8086217239  9.9622439711  6.1925000000 1
   7.1913782761  8.0377560289  7.4310000000 1
   8.2330243224  7.1006842522  7.4310000000 1
   7.7389315538  10.6141122558  7.4310000000 1
   9.0716446604  11.0469225786  7.4310000000 1
   10.7371163229  7.9143311368  7.4310000000 1
   11.0280441238  9.2852034920  7.4310000000 1
   6.9719558762  8.7147965080  8.6695000000 1
   7.2628836771  10.0856688632  8.6695000000 1
   8.9283553396  6.9530774214  8.6695000000 1
   10.2610684462  7.3858877442  8.6695000000 1
   9.7669756776  10.8993157478  8.6695000000 1
   10.8086217239  9.9622439711  8.6695000000 1
   7.1913782761  8.0377560289  9.9080000000 1
   8.2330243224  7.1006842522  9.9080000000 1
   7.7389315538  10.6141122558  9.9080000000 1
   9.0716446604  11.0469225786  9.9080000000 1
   10.7371163229  7.9143311368  9.9080000000 1
   11.0280441238  9.2852034920  9.9080000000 1
   6.9719558762  8.7147965080  11.1465000000 1
   7.2628836771  10.0856688632  11.1465000000 1
   8.9283553396  6.9530774214  11.1465000000 1
   10.2610684462  7.3858877442  11.1465000000 1
   9.7669756776  10.8993157478  11.1465000000 1
   10.8086217239  9.9622439711  11.1465000000 1
   7.1913782761  8.0377560289  12.3850000000 1
   8.2330243224  7.1006842522  12.3850000000 1
   7.7389315538  10.6141122558  12.3850000000 1
   9.0716446604  11.0469225786  12.3850000000 1
   10.7371163229  7.9143311368  12.3850000000 1
   11.0280441238  9.2852034920  12.3850000000 1
   6.9719558762  8.7147965080  13.6235000000 1
   7.2628836771  10.0856688632  13.6235000000 1
   8.9283553396  6.9530774214  13.6235000000 1
   10.2610684462  7.3858877442  13.6235000000 1
   9.7669756776  10.8993157478  13.6235000000 1
   10.8086217239  9.9622439711  13.6235000000 1
   7.1913782761  8.0377560289  14.8620000000 1
   8.2330243224  7.1006842522  14.8620000000 1
   7.7389315538  10.6141122558  14.8620000000 1
   9.0716446604  11.0469225786  14.8620000000 1
   10.7371163229  7.9143311368  14.8620000000 1
   11.0280441238  9.2852034920  14.8620000000 1
   6.9719558762  8.7147965080  16.1005000000 1
   7.2628836771  10.0856688632  16.1005000000 1
   8.9283553396  6.9530774214  16.1005000000 1
   10.2610684462  7.3858877442  16.1005000000 1
   9.7669756776  10.8993157478  16.1005000000 1
   10.8086217239  9.9622439711  16.1005000000 1
   7.1913782761  8.0377560289  17.3390000000 1
   8.2330243224  7.1006842522  17.3390000000 1
   7.7389315538  10.6141122558  17.3390000000 1
   9.0716446604  11.0469225786  17.3390000000 1
   10.7371163229  7.9143311368  17.3390000000 1
   11.0280441238  9.2852034920  17.3390000000 1
   6.9719558762  8.7147965080  18.5775000000 1
   7.2628836771  10.0856688632  18.5775000000 1
   8.9283553396  6.9530774214  18.5775000000 1
   10.2610684462  7.3858877442  18.5775000000 1
   9.7669756776  10.8993157478  18.5775000000 1
   10.8086217239  9.9622439711  18.5775000000 1
   7.1913782761  8.0377560289  19.8160000000 1
   8.2330243224  7.1006842522  19.8160000000 1
   7.7389315538  10.6141122558  19.8160000000 1
   9.0716446604  11.0469225786  19.8160000000 1
   10.7371163229  7.9143311368  19.8160000000 1
   11.0280441238  9.2852034920  19.8160000000 1
   6.9719558762  8.7147965080  21.0545000000 1
   7.2628836771  10.0856688632  21.0545000000 1
   8.9283553396  6.9530774214  21.0545000000 1
   10.2610684462  7.3858877442  21.0545000000 1
   9.7669756776  10.8993157478  21.0545000000 1
   10.8086217239  9.9622439711  21.0545000000 1
   7.1913782761  8.0377560289  22.2930000000 1
   8.2330243224  7.1006842522  22.2930000000 1
   7.7389315538  10.6141122558  22.2930000000 1
   9.0716446604  11.0469225786  22.2930000000 1
   10.7371163229  7.9143311368  22.2930000000 1
   11.0280441238  9.2852034920  22.2930000000 1
   6.9719558762  8.7147965080  23.5315000000 1
   7.2628836771  10.0856688632  23.5315000000 1
   8.9283553396  6.9530774214  23.5315000000 1
   10.2610684462  7.3858877442  23.5315000000 1
   9.7669756776  10.8993157478  23.5315000000 1
   10.8086217239  9.9622439711  23.5315000000 1
   7.1913782761  8.0377560289  24.7700000000 1
   8.2330243224  7.1006842522  24.7700000000 1
   7.7389315538  10.6141122558  24.7700000000 1
   9.0716446604  11.0469225786  24.7700000000 1
   10.7371163229  7.9143311368  24.7700000000 1
   11.0280441238  9.2852034920  24.7700000000 1
   6.9719558762  8.7147965080  26.0085000000 1
   7.2628836771  10.0856688632  26.0085000000 1
   8.9283553396  6.9530774214  26.0085000000 1
   10.2610684462  7.3858877442  26.0085000000 1
   9.7669756776  10.8993157478  26.0085000000 1
   10.8086217239  9.9622439711  26.0085000000 1
   7.1913782761  8.0377560289  27.2470000000 1
   8.2330243224  7.1006842522  27.2470000000 1
   7.7389315538  10.6141122558  27.2470000000 1
   9.0716446604  11.0469225786  27.2470000000 1
   10.7371163229  7.9143311368  27.2470000000 1
   11.0280441238  9.2852034920  27.2470000000 1
   6.9719558762  8.7147965080  28.4855000000 1
   7.2628836771  10.0856688632  28.4855000000 1
   8.9283553396  6.9530774214  28.4855000000 1
   10.2610684462  7.3858877442  28.4855000000 1
   9.7669756776  10.8993157478  28.4855000000 1
   10.8086217239  9.9622439711  28.4855000000 1
   7.1913782761  8.0377560289  29.7240000000 1
   8.2330243224  7.1006842522  29.7240000000 1
   7.7389315538  10.6141122558  29.7240000000 1
   9.0716446604  11.0469225786  29.7240000000 1
   10.7371163229  7.9143311368  29.7240000000 1
   11.0280441238  9.2852034920  29.7240000000 1
   6.9719558762  8.7147965080  30.9625000000 1
   7.2628836771  10.0856688632  30.9625000000 1
   8.9283553396  6.9530774214  30.9625000000 1
   10.2610684462  7.3858877442  30.9625000000 1
   9.7669756776  10.8993157478  30.9625000000 1
   10.8086217239  9.9622439711  30.9625000000 1
   7.1913782761  8.0377560289  32.2010000000 1
   8.2330243224  7.1006842522  32.2010000000 1
   7.7389315538  10.6141122558  32.2010000000 1
   9.0716446604  11.0469225786  32.2010000000 1
   10.7371163229  7.9143311368  32.2010000000 1
   11.0280441238  9.2852034920  32.2010000000 1
   6.9719558762  8.7147965080  33.4395000000 1
   7.2628836771  10.0856688632  33.4395000000 1
   8.9283553396  6.9530774214  33.4395000000 1
   10.2610684462  7.3858877442  33.4395000000 1
   9.7669756776  10.8993157478  33.4395000000 1
   10.8086217239  9.9622439711  33.4395000000 1
   7.1913782761  8.0377560289  34.6780000000 1
   8.2330243224  7.1006842522  34.6780000000 1
   7.7389315538  10.6141122558  34.6780000000 1
   9.0716446604  11.0469225786  34.6780000000 1
   10.7371163229  7.9143311368  34.6780000000 1
   11.0280441238  9.2852034920  34.6780000000 1
   6.9719558762  8.7147965080  35.9165000000 1
   7.2628836771  10.0856688632  35.9165000000 1
   8.9283553396  6.9530774214  35.9165000000 1
   10.2610684462  7.3858877442  35.9165000000 1
   9.7669756776  10.8993157478  35.9165000000 1
   10.8086217239  9.9622439711  35.9165000000 1
   7.1913782761  8.0377560289  37.1550000000 1
   8.2330243224  7.1006842522  37.1550000000 1
   7.7389315538  10.6141122558  37.1550000000 1
   9.0716446604  11.0469225786  37.1550000000 1
   10.7371163229  7.9143311368  37.1550000000 1
   11.0280441238  9.2852034920  37.1550000000 1
   6.9719558762  8.7147965080  38.3935000000 1
   7.2628836771  10.0856688632  38.3935000000 1
   8.9283553396  6.9530774214  38.3935000000 1
   10.2610684462  7.3858877442  38.3935000000 1
   9.7669756776  10.8993157478  38.3935000000 1
   10.8086217239  9.9622439711  38.3935000000 1
%endblock AtomicCoordinatesAndAtomicSpecies
# Basis set variables
PAO.BasisType split
PAO.BasisSize    DZP
%block PAO.Basis                 # Define Basis set
C           2                    # Species label, number of l-shells
 n=2   0   2                         # n, l, Nzeta
   4.3      0.0
 n=2   1   2                         # n, l, Nzeta
   4.9      0.0
%endblock PAO.Basis
#%block PAO.Basis                 # Define Basis set
#C           2                    # Species label, number of l-shells
# n=2   0   1                         # n, l, Nzeta
#   5.0
# n=2   1   1
#   5.7
#%endblock PAO.Basis
%block kgrid_Monkhorst_Pack
  1   0   0     0.0
  0   1   0     0.0
  0   0   1     0.0
%endblock kgrid_Monkhorst_Pack
# General variables
NeglNonOverlapInt   False
ElectronicTemperature  300 K  # Default value
MeshCutoff           400. Ry
xc.functional         LDA           # Exchange-correlation functional
xc.authors            CA
SpinPolarized         T
          # Exchange-correlation version
# SCF variables
DM.MixSCF1            T
MaxSCFIterations      300           # Maximum number of SCF iter
MixHamiltonian               T
ReadHamiltonian              T     # Default value
DM.MixingWeight       0.01         # New DM amount for next SCF cycle
DM.Tolerance          1.0d-4         # Tolerance in maximum difference
DM.UseSaveDM          true          # to use continuation files
DM.NumberPulay         5
SolutionMethod     diagon
# Output variables
WriteMullikenPop                0
WriteBands                      F
SaveRho                         T
SaveDeltaRho                    F
SaveHS                          F
SaveElectrostaticPotential      T
SaveTotalPotential              F
WriteCoorXmol                   T
WriteMDXmol                     T
WriteMDhistory                  T
WriteEigenvalues                F
#----- #smeagol
#-----
EMTransport              T
NEnergReal                0
NEnergImCircle            16
NEnergImLine              16
NPoles                    16
VInitial                 0.00d0 eV
VFinal                   0.00d0 eV
NIVPoints                0
Delta                    1.d-5
#Delta                    1.d-5
EnergLowestBound        -6.0d0 Ry
NSlices                  1
TrCoefficients           T
#AtomLeftVCte             1
#AtomRightVCte            2
NTransmPoints           1024
TransmissionOverK        F
InitTransmRange         -3.0d0 eV
FinalTransmRange        3.0d0 eV
DeltaTransmission        0d-3
Sigma.Eimag             0d-3
TRC.LeadsDOS              F
TRC.EMDOS              F
TRC.EMPDOS              T
PeriodicTransp           T
InitTransport            F
HartreeLeadsBottom      -0.94516593 eV
HartreeLeadsLeft         0.00  Ang
HartreeLeadsRight        0.00  Ang
WriteDMT                 T
#BlockSize 4
%block SaveBiasSteps
 0
%endblock SaveBiasSteps
#NumberOfProcessorsDiv   4
EM.OrderN T # might set ordern to F, then you can comment out the next 2 lines
EM.SetHLRZeroRatioLeft  1.5
EM.SetHLRZeroRatioright 1.5
WriteSpinSCF T
EM.CalculateForces T
EM.SetEBD  T
MD.NumCGsteps    0     # Default value
MD.TypeOfRun     CG                     # Default value
MD.MaxCGDispl      0.02 Bohr  # Maximum atomic displacement
MD.MaxForceTol     0.01 eV/Ang # Force Tollerance
MD.VariableCell          F           # Unit cell relaxation
MD.UseSaveXV      T
MD.UseSaveCG      T
%block GeometryConstraints
  position from 1 to 48
  position from 62 to 109
%endblock GeometryConstraints
WriteForces      T
#DM.NumberKick              50     # Default value
#DM.KickMixingWeight         0.05000000000         # Default value
