
#FDF: Opened INPUT_TMP            for input. Unit: 12

fdf-debug              0     # Default value
SystemName     cntM                                                                                                                                
SystemLabel     cntM                                                                                                                                
alloc_report_level              0     # Default value
user-basis              F     # Default value
user-basis-netcdf              F     # Default value
PAO.BasisSize     DZP                                                                                                                                 
PAO.BasisType     split                                                                                                                               
Number_of_species                        1

%block ChemicalSpeciesLabel                                                    
 1 6 C                                                                         
%endblock ChemicalSpeciesLabel                                                 
 

%block PAO.Basis                 # Define Basis set                            
C           2                    # Species label, number of l-shells           
 n=2   0   2                         # n, l, Nzeta                             
   4.3      0.0                                                                
 n=2   1   2                         # n, l, Nzeta                             
   4.9      0.0                                                                
%endblock PAO.Basis                                                            
 
PS.SIC              F     # Default value
ProjectionMethod     Zeta     # Default value
SIC.Flavour     Pseudo     # Default value
SIC.Lambda         0.5000000000         # Default value
SIC.NoRelaxation              F     # Default value
SIC.Rot_Inv              F     # Default value
WriteProjections              T     # Default value
ProjectionInSCF              F     # Default value
SIC.PopKgridFactor              1     # Default value
SIC.PopDMConv         0.1000000000E-03     # Default value
SIC.PopSmatSparsity         0.1000000000E-03     # Default value
SIC.ProjectionMode     SaveTime     # Default value
SIC.Npop              1     # Default value
SpinOrbit              F     # Default value
SpinOrbit              F     # Default value
xc.functional     LDA                                                                                                                                 
xc.authors     CA                                                                                                                                  
PAO.EnergyShift         0.2000000000E-01 Ry     # Default value
PAO.SplitNorm         0.1500000000         # Default value
PAO.SplitNorm         0.1500000000         # Default value
PAO.BasisType     split                                                                                                                               
CDFT              F     # Default value
CDFT.MaxIter              1     # Default value
LatticeConstant          1.889726878           Bohr
# Above item originally: LatticeConstant         1.0000000000     Ang       

%block LatticeVectors                                                          
   20.0000000000  0.0000000000  0.0000000000                                   
   0.0000000000  20.0000000000  0.0000000000                                   
   0.0000000000  0.0000000000  39.6320000000                                   
%endblock LatticeVectors                                                       
 

%block LatticeVectors                                                          
   20.0000000000  0.0000000000  0.0000000000                                   
   0.0000000000  20.0000000000  0.0000000000                                   
   0.0000000000  0.0000000000  39.6320000000                                   
%endblock LatticeVectors                                                       
 
AtomicCoordinatesFormat     Ang                                                                                                                                 
NumberOfAtoms                      192

%block AtomicCoordinatesAndAtomicSpecies                                       
   7.1913782761  8.0377560289  0.0000000000 1                                  
   8.2330243224  7.1006842522  0.0000000000 1                                  
   7.7389315538  10.6141122558  0.0000000000 1                                 
   9.0716446604  11.0469225786  0.0000000000 1                                 
   10.7371163229  7.9143311368  0.0000000000 1                                 
   11.0280441238  9.2852034920  0.0000000000 1                                 
   6.9719558762  8.7147965080  1.2385000000 1                                  
   7.2628836771  10.0856688632  1.2385000000 1                                 
   8.9283553396  6.9530774214  1.2385000000 1                                  
   10.2610684462  7.3858877442  1.2385000000 1                                 
   9.7669756776  10.8993157478  1.2385000000 1                                 
   10.8086217239  9.9622439711  1.2385000000 1                                 
   7.1913782761  8.0377560289  2.4770000000 1                                  
   8.2330243224  7.1006842522  2.4770000000 1                                  
   7.7389315538  10.6141122558  2.4770000000 1                                 
   9.0716446604  11.0469225786  2.4770000000 1                                 
   10.7371163229  7.9143311368  2.4770000000 1                                 
   11.0280441238  9.2852034920  2.4770000000 1                                 
   6.9719558762  8.7147965080  3.7155000000 1                                  
   7.2628836771  10.0856688632  3.7155000000 1                                 
   8.9283553396  6.9530774214  3.7155000000 1                                  
   10.2610684462  7.3858877442  3.7155000000 1                                 
   9.7669756776  10.8993157478  3.7155000000 1                                 
   10.8086217239  9.9622439711  3.7155000000 1                                 
   7.1913782761  8.0377560289  4.9540000000 1                                  
   8.2330243224  7.1006842522  4.9540000000 1                                  
   7.7389315538  10.6141122558  4.9540000000 1                                 
   9.0716446604  11.0469225786  4.9540000000 1                                 
   10.7371163229  7.9143311368  4.9540000000 1                                 
   11.0280441238  9.2852034920  4.9540000000 1                                 
   6.9719558762  8.7147965080  6.1925000000 1                                  
   7.2628836771  10.0856688632  6.1925000000 1                                 
   8.9283553396  6.9530774214  6.1925000000 1                                  
   10.2610684462  7.3858877442  6.1925000000 1                                 
   9.7669756776  10.8993157478  6.1925000000 1                                 
   10.8086217239  9.9622439711  6.1925000000 1                                 
   7.1913782761  8.0377560289  7.4310000000 1                                  
   8.2330243224  7.1006842522  7.4310000000 1                                  
   7.7389315538  10.6141122558  7.4310000000 1                                 
   9.0716446604  11.0469225786  7.4310000000 1                                 
   10.7371163229  7.9143311368  7.4310000000 1                                 
   11.0280441238  9.2852034920  7.4310000000 1                                 
   6.9719558762  8.7147965080  8.6695000000 1                                  
   7.2628836771  10.0856688632  8.6695000000 1                                 
   8.9283553396  6.9530774214  8.6695000000 1                                  
   10.2610684462  7.3858877442  8.6695000000 1                                 
   9.7669756776  10.8993157478  8.6695000000 1                                 
   10.8086217239  9.9622439711  8.6695000000 1                                 
   7.1913782761  8.0377560289  9.9080000000 1                                  
   8.2330243224  7.1006842522  9.9080000000 1                                  
   7.7389315538  10.6141122558  9.9080000000 1                                 
   9.0716446604  11.0469225786  9.9080000000 1                                 
   10.7371163229  7.9143311368  9.9080000000 1                                 
   11.0280441238  9.2852034920  9.9080000000 1                                 
   6.9719558762  8.7147965080  11.1465000000 1                                 
   7.2628836771  10.0856688632  11.1465000000 1                                
   8.9283553396  6.9530774214  11.1465000000 1                                 
   10.2610684462  7.3858877442  11.1465000000 1                                
   9.7669756776  10.8993157478  11.1465000000 1                                
   10.8086217239  9.9622439711  11.1465000000 1                                
   7.1913782761  8.0377560289  12.3850000000 1                                 
   8.2330243224  7.1006842522  12.3850000000 1                                 
   7.7389315538  10.6141122558  12.3850000000 1                                
   9.0716446604  11.0469225786  12.3850000000 1                                
   10.7371163229  7.9143311368  12.3850000000 1                                
   11.0280441238  9.2852034920  12.3850000000 1                                
   6.9719558762  8.7147965080  13.6235000000 1                                 
   7.2628836771  10.0856688632  13.6235000000 1                                
   8.9283553396  6.9530774214  13.6235000000 1                                 
   10.2610684462  7.3858877442  13.6235000000 1                                
   9.7669756776  10.8993157478  13.6235000000 1                                
   10.8086217239  9.9622439711  13.6235000000 1                                
   7.1913782761  8.0377560289  14.8620000000 1                                 
   8.2330243224  7.1006842522  14.8620000000 1                                 
   7.7389315538  10.6141122558  14.8620000000 1                                
   9.0716446604  11.0469225786  14.8620000000 1                                
   10.7371163229  7.9143311368  14.8620000000 1                                
   11.0280441238  9.2852034920  14.8620000000 1                                
   6.9719558762  8.7147965080  16.1005000000 1                                 
   7.2628836771  10.0856688632  16.1005000000 1                                
   8.9283553396  6.9530774214  16.1005000000 1                                 
   10.2610684462  7.3858877442  16.1005000000 1                                
   9.7669756776  10.8993157478  16.1005000000 1                                
   10.8086217239  9.9622439711  16.1005000000 1                                
   7.1913782761  8.0377560289  17.3390000000 1                                 
   8.2330243224  7.1006842522  17.3390000000 1                                 
   7.7389315538  10.6141122558  17.3390000000 1                                
   9.0716446604  11.0469225786  17.3390000000 1                                
   10.7371163229  7.9143311368  17.3390000000 1                                
   11.0280441238  9.2852034920  17.3390000000 1                                
   6.9719558762  8.7147965080  18.5775000000 1                                 
   7.2628836771  10.0856688632  18.5775000000 1                                
   8.9283553396  6.9530774214  18.5775000000 1                                 
   10.2610684462  7.3858877442  18.5775000000 1                                
   9.7669756776  10.8993157478  18.5775000000 1                                
   10.8086217239  9.9622439711  18.5775000000 1                                
   7.1913782761  8.0377560289  19.8160000000 1                                 
   8.2330243224  7.1006842522  19.8160000000 1                                 
   7.7389315538  10.6141122558  19.8160000000 1                                
   9.0716446604  11.0469225786  19.8160000000 1                                
   10.7371163229  7.9143311368  19.8160000000 1                                
   11.0280441238  9.2852034920  19.8160000000 1                                
   6.9719558762  8.7147965080  21.0545000000 1                                 
   7.2628836771  10.0856688632  21.0545000000 1                                
   8.9283553396  6.9530774214  21.0545000000 1                                 
   10.2610684462  7.3858877442  21.0545000000 1                                
   9.7669756776  10.8993157478  21.0545000000 1                                
   10.8086217239  9.9622439711  21.0545000000 1                                
   7.1913782761  8.0377560289  22.2930000000 1                                 
   8.2330243224  7.1006842522  22.2930000000 1                                 
   7.7389315538  10.6141122558  22.2930000000 1                                
   9.0716446604  11.0469225786  22.2930000000 1                                
   10.7371163229  7.9143311368  22.2930000000 1                                
   11.0280441238  9.2852034920  22.2930000000 1                                
   6.9719558762  8.7147965080  23.5315000000 1                                 
   7.2628836771  10.0856688632  23.5315000000 1                                
   8.9283553396  6.9530774214  23.5315000000 1                                 
   10.2610684462  7.3858877442  23.5315000000 1                                
   9.7669756776  10.8993157478  23.5315000000 1                                
   10.8086217239  9.9622439711  23.5315000000 1                                
   7.1913782761  8.0377560289  24.7700000000 1                                 
   8.2330243224  7.1006842522  24.7700000000 1                                 
   7.7389315538  10.6141122558  24.7700000000 1                                
   9.0716446604  11.0469225786  24.7700000000 1                                
   10.7371163229  7.9143311368  24.7700000000 1                                
   11.0280441238  9.2852034920  24.7700000000 1                                
   6.9719558762  8.7147965080  26.0085000000 1                                 
   7.2628836771  10.0856688632  26.0085000000 1                                
   8.9283553396  6.9530774214  26.0085000000 1                                 
   10.2610684462  7.3858877442  26.0085000000 1                                
   9.7669756776  10.8993157478  26.0085000000 1                                
   10.8086217239  9.9622439711  26.0085000000 1                                
   7.1913782761  8.0377560289  27.2470000000 1                                 
   8.2330243224  7.1006842522  27.2470000000 1                                 
   7.7389315538  10.6141122558  27.2470000000 1                                
   9.0716446604  11.0469225786  27.2470000000 1                                
   10.7371163229  7.9143311368  27.2470000000 1                                
   11.0280441238  9.2852034920  27.2470000000 1                                
   6.9719558762  8.7147965080  28.4855000000 1                                 
   7.2628836771  10.0856688632  28.4855000000 1                                
   8.9283553396  6.9530774214  28.4855000000 1                                 
   10.2610684462  7.3858877442  28.4855000000 1                                
   9.7669756776  10.8993157478  28.4855000000 1                                
   10.8086217239  9.9622439711  28.4855000000 1                                
   7.1913782761  8.0377560289  29.7240000000 1                                 
   8.2330243224  7.1006842522  29.7240000000 1                                 
   7.7389315538  10.6141122558  29.7240000000 1                                
   9.0716446604  11.0469225786  29.7240000000 1                                
   10.7371163229  7.9143311368  29.7240000000 1                                
   11.0280441238  9.2852034920  29.7240000000 1                                
   6.9719558762  8.7147965080  30.9625000000 1                                 
   7.2628836771  10.0856688632  30.9625000000 1                                
   8.9283553396  6.9530774214  30.9625000000 1                                 
   10.2610684462  7.3858877442  30.9625000000 1                                
   9.7669756776  10.8993157478  30.9625000000 1                                
   10.8086217239  9.9622439711  30.9625000000 1                                
   7.1913782761  8.0377560289  32.2010000000 1                                 
   8.2330243224  7.1006842522  32.2010000000 1                                 
   7.7389315538  10.6141122558  32.2010000000 1                                
   9.0716446604  11.0469225786  32.2010000000 1                                
   10.7371163229  7.9143311368  32.2010000000 1                                
   11.0280441238  9.2852034920  32.2010000000 1                                
   6.9719558762  8.7147965080  33.4395000000 1                                 
   7.2628836771  10.0856688632  33.4395000000 1                                
   8.9283553396  6.9530774214  33.4395000000 1                                 
   10.2610684462  7.3858877442  33.4395000000 1                                
   9.7669756776  10.8993157478  33.4395000000 1                                
   10.8086217239  9.9622439711  33.4395000000 1                                
   7.1913782761  8.0377560289  34.6780000000 1                                 
   8.2330243224  7.1006842522  34.6780000000 1                                 
   7.7389315538  10.6141122558  34.6780000000 1                                
   9.0716446604  11.0469225786  34.6780000000 1                                
   10.7371163229  7.9143311368  34.6780000000 1                                
   11.0280441238  9.2852034920  34.6780000000 1                                
   6.9719558762  8.7147965080  35.9165000000 1                                 
   7.2628836771  10.0856688632  35.9165000000 1                                
   8.9283553396  6.9530774214  35.9165000000 1                                 
   10.2610684462  7.3858877442  35.9165000000 1                                
   9.7669756776  10.8993157478  35.9165000000 1                                
   10.8086217239  9.9622439711  35.9165000000 1                                
   7.1913782761  8.0377560289  37.1550000000 1                                 
   8.2330243224  7.1006842522  37.1550000000 1                                 
   7.7389315538  10.6141122558  37.1550000000 1                                
   9.0716446604  11.0469225786  37.1550000000 1                                
   10.7371163229  7.9143311368  37.1550000000 1                                
   11.0280441238  9.2852034920  37.1550000000 1                                
   6.9719558762  8.7147965080  38.3935000000 1                                 
   7.2628836771  10.0856688632  38.3935000000 1                                
   8.9283553396  6.9530774214  38.3935000000 1                                 
   10.2610684462  7.3858877442  38.3935000000 1                                
   9.7669756776  10.8993157478  38.3935000000 1                                
   10.8086217239  9.9622439711  38.3935000000 1                                
%endblock AtomicCoordinatesAndAtomicSpecies                                    
 
SpinPolarized              T
NonCollinearSpin              F     # Default value
SpinOrbit              F     # Default value
LongOutput              F     # Default value
NumberOfSpecies                        1
WriteDenchar              F     # Default value
WriteMullikenPop                        0
MeshCutoff          400.0000000             Ry
# Above item originally: MeshCutoff          400.0000000     Ry        
NetCharge          0.000000000         # Default value
MaxSCFIterations                      300
DM.NumberPulay                        5
DM.MixSCF1              T
DM.PulayOnFile              F     # Default value
DM.MixingWeight         0.1000000000E-01
DM.NumberKick              0     # Default value
DM.KickMixingWeight         0.5000000000         # Default value
DM.Tolerance         0.1000000000E-03
DM.InitSpinAF              F     # Default value
UseSaveData              F     # Default value
DM.UseSaveDM              T
NeglNonOverlapInt              F
SolutionMethod     diagon                                                                                                                              
DiagMemory          2.000000000         # Default value
DiagScale          1.500000000         # Default value
TryMemoryIncrease              T     # Default value
ElectronicTemperature         0.1900069269E-02         Ry
# Above item originally: ElectronicTemperature          300.0000000     K         
FixSpin              F     # Default value
ON.MaxNumIter           1000     # Default value
ON.etol         0.1000000000E-07     # Default value
ON.eta          0.000000000     Ry     # Default value
On.RcLWF          9.500000000     Bohr     # Default value
UseSaveData              F     # Default value
ON.UseSaveLWF              F     # Default value
ON.functional     kim               # Default value
ON.ChemicalPotential              F     # Default value
ON.ChemicalPotentialUse              F     # Default value
ON.ChemicalPotentialRc          9.500000000     Bohr     # Default value
ON.ChemicalPotentialTemperature         0.5000000075E-01 Ry     # Default value
ON.ChemicalPotentialOrder            100     # Default value
MD.VariableCell              F
MD.TypeOfRun     CG                                                                                                                                  
MD.LengthTimeStep         1.0000000000     fs     # Default value
UseSaveData              F     # Default value
MD.UseSaveCG              T
MD.NumCGsteps                        0
MD.NumNEBsteps              1     # Default value
MD.MaxCGDispl         0.2000000000E-01       Bohr
# Above item originally: MD.MaxCGDispl         0.2000000000E-01 Bohr      
MD.MaxForceTol         0.3889348769E-03    Ry/Bohr
# Above item originally: MD.MaxForceTol         0.1000000000E-01 eV/Ang    
MD.MaxStressTol         0.6797730000E-04 Ry/Bohr**3     # Default value
MD.InitialTimeStep              1     # Default value
MD.FinalTimeStep              1     # Default value
MD.Quench              F     # Default value
MD.InitialTemperature          0.000000000     K     # Default value
MD.TargetTemperature          0.000000000     K     # Default value
MD.TargetPressure          0.000000000     Ry/Bohr**3     # Default value
MD.NoseMass         100.00000000     Ry*fs**2     # Default value
MD.ParrinelloRahmanMass         100.00000000     Ry*fs**2     # Default value
MD.AnnealOption     TemperatureAndPressure     # Default value
MD.TauRelax         100.00000000     fs     # Default value
MD.BulkModulus         100.00000000         # Default value
MD.FCDispl         0.4000000000E-01 Bohr     # Default value
MD.FCfirst              1     # Default value
MD.FClast            192     # Default value
Harris_functional              F     # Default value
WriteEDM              F     # Default value
WriteKpoints              F     # Default value
WriteForces              T
WriteDM              T     # Default value
WriteEigenvalues              F
WriteBands              F
WriteKbands              F     # Default value
WriteCoorStep              F     # Default value
WriteCoorInitial              T     # Default value
WriteMDhistory              T
WriteMDXmol              T
UseSaveData              F     # Default value
MD.UseSaveXV              T
MD.UseSaveNEB              F     # Default value
NEB.SkipEdge              F     # Default value
SaveHS              F
FixAuxillaryCell              F     # Default value
ReInitialiseDM              F     # Default value
SignatureRecords              F     # Default value
MullikenInSCF              F     # Default value
BuildSuperCell              F     # Default value
ReadKPIN              F     # Default value
TimeReversal              T     # Default value
WriteSpinSCF              T
WriteSpinMulliken              F     # Default value
WarningMinimumAtomicDistance         1.0000000000     Bohr     # Default value
STT.Calculation              F     # Default value
STT.LinearResponse              F     # Default value
RotateSpin.Theta          0.000000000         # Default value
RotateSpin.Phi          0.000000000         # Default value
NC.OrbitalRotationStart              1     # Default value
NC.OrbitalRotationEnd             -1     # Default value
SystemLabel     cntM                                                                                                                                
processorY              8     # Default value
blocksize              8     # Default value

%block kgrid_Monkhorst_Pack                                                    
  1   0   0     0.0                                                            
  0   1   0     0.0                                                            
  0   0   1     0.0                                                            
%endblock kgrid_Monkhorst_Pack                                                 
 
LongOutput              F     # Default value
WriteWaveFunctions              F     # Default value
EM.PrintLimits              F     # Default value
EMTransport              T
NEnergReal                        0
NenergImCircle                       16
NenergImLine                       16
NPoles                       16
VInitial          0.000000000             Ry
# Above item originally: VInitial          0.000000000     eV        
VFinal          0.000000000             Ry
# Above item originally: VFinal          0.000000000     eV        
NIVPoints                        0
Delta         0.1000000000E-04
EnergLowestBound         -6.000000000             Ry
# Above item originally: EnergLowestBound         -6.000000000     Ry        
SpinConfLeads              0     # Default value
AtomLeftVcte              1     # Default value
AtomRightVcte            192     # Default value
ZLeftVcte          0.000000000     Bohr     # Default value
ZRightVcte          0.000000000     Bohr     # Default value
NSlices                        1
TrCoefficients              T
SetBulkTransvCell              F     # Default value
Sigma.DSigmaDE              F     # Default value
BulkTransvCellSize              3     # Default value
BulkTransvCellSizeX              3     # Default value
BulkTransvCellSizeY              3     # Default value
MixHamiltonian              T
ReadHamiltonian              T
FullRamp              T     # Default value
NumberLinearMix              1     # Default value
SkipLastIter              F     # Default value
CB.WriteComplexBands              F     # Default value
EM.addV              F     # Default value
CB.MaxKappa          0.000000000         # Default value
NTransmPoints                     1024
InitTransmRange        -0.2204939653             Ry
# Above item originally: InitTransmRange         -3.000000000     eV        
FinalTransmRange         0.2204939653             Ry
# Above item originally: FinalTransmRange          3.000000000     eV        
VGate          0.000000000     Ry     # Default value
ZVGateR          0.000000000     Bohr     # Default value
ZVGateL          0.000000000     Bohr     # Default value
ZBroadeningG         1.0000000000     Bohr     # Default value
BulkTransport              F     # Default value
InitTransport              F
BulkLead     LR     # Default value
Sigma.InvertH1              F     # Default value
Sigma.InvertV              F     # Default value
Sigma.CSVD              F     # Default value
Sigma.Dkimag         0.1000000000E-05     # Default value
Sigma.DSVDMax         0.5000000000E-11     # Default value
Sigma.DSVDMin         0.1000000000E-14     # Default value
Sigma.DMax         0.1000000000E-04     # Default value
Sigma.RNoise         1.0000000000         # Default value
Sigma.SkipSVD         1000.0000000         # Default value
Sigma.ComplexBands              F     # Default value
Sigma.SVDTolZero         0.1000000000E-07     # Default value
Sigma.WideBandImag          0.000000000         # Default value
Sigma.DOSVV              F     # Default value
TRC.LeadsDOS              F
TRC.LeadsPDOS              F     # Default value
EM.LDOS3              F     # Default value
EM.LDOS2              F     # Default value
EM.LDOS              F     # Default value
EM.LDOSLeadsProjection              0     # Default value
EM.TransmissionRL              F     # Default value
EM.SpinTorqueK              F     # Default value
EM.SpinTorqueKScale         1.0000000000         # Default value
EM.CurrentDensity              F     # Default value
EM.TRCSpinComponents              F     # Default value
EM.TRCSpinComponentsOribalSplit              0     # Default value
Ik_Select              0     # Default value
EM.TRCChannels              F     # Default value
EM.TRCChannelsWFS              F     # Default value
EM.TMatrix              F     # Default value
EM.TMatrixWFS              F     # Default value
EM.TMatrixPDOS              F     # Default value
EM.TMatrixPDOSNWrite             20     # Default value
EM.TRCMinChannelIndex              1     # Default value
EM.TRCMaxChannelIndex              0     # Default value
EM.TRCAddVCDFT              F     # Default value
EM.ParallelOverKNum              1     # Default value