 # Version information for this restart file 
 # current date 2022-10-20 13:10:55.726
 # current working dir /work4/scd/scarf1157/work/testing/cp2k-smeagol/bdt/hollow-site/em-cp2k/geo_opt/dzp-molecule-2
 # Program compiled at                              Thu  6 Oct 11:48:07 BST 2022
 # Program compiled on                                     cn1065.scarf.rl.ac.uk
 # Program compiled for                                                    local
 # Source code revision number                                       git:8c0411e
 &GLOBAL
   EXTENDED_FFT_LENGTHS  T
   PRINT_LEVEL  MEDIUM
   PROJECT_NAME dft_wfn
   RUN_TYPE  GEO_OPT
 &END GLOBAL
 &MOTION
   &GEO_OPT
     OPTIMIZER  BFGS
     MAX_ITER  1000
     STEP_START_VAL  11
   &END GEO_OPT
   &CONSTRAINT
     &FIXED_ATOMS
       COMPONENTS_TO_FIX  XYZ
       LIST  13..300
     &END FIXED_ATOMS
   &END CONSTRAINT
   &PRINT
     &TRAJECTORY  ON
       FORMAT  XMOL
     &END TRAJECTORY
   &END PRINT
 &END MOTION
 &FORCE_EVAL
   METHOD  QS
   &DFT
     BASIS_SET_FILE_NAME BASIS_MOLOPT
     POTENTIAL_FILE_NAME GTH_POTENTIALS
     &SCF
       MAX_SCF  100
       EPS_SCF     9.9999999999999995E-08
       SCF_GUESS  ATOMIC
       ADDED_MOS  100
       &SMEAR  T
         METHOD  FERMI_DIRAC
         ELECTRONIC_TEMPERATURE     2.9300000000000000E+02
       &END SMEAR
       &MIXING  T
         METHOD  BROYDEN_MIXING
         ALPHA     2.9999999999999999E-01
         NBUFFER  8
       &END MIXING
       &PRINT
         &RESTART  SILENT
           FILENAME RESTART_0
         &END RESTART
       &END PRINT
     &END SCF
     &MGRID
       CUTOFF     4.0000000000000000E+02
     &END MGRID
     &XC
       DENSITY_CUTOFF     1.0000000000000000E-10
       GRADIENT_CUTOFF     1.0000000000000000E-10
       TAU_CUTOFF     1.0000000000000000E-10
       &XC_FUNCTIONAL  NO_SHORTCUT
         &PADE  T
         &END PADE
       &END XC_FUNCTIONAL
     &END XC
     &POISSON
       PERIODIC  XYZ
     &END POISSON
     &PRINT
       &MO_CUBES  ON
         NLUMO  1
         NHOMO  1
       &END MO_CUBES
       &E_DENSITY_CUBE  ON
       &END E_DENSITY_CUBE
       &HIRSHFELD  SILENT
         SHAPE_FUNCTION  DENSITY
       &END HIRSHFELD
     &END PRINT
   &END DFT
   &SUBSYS
     &CELL
       A     1.6685150000000000E+01    0.0000000000000000E+00    0.0000000000000000E+00
       B     0.0000000000000000E+00    1.6685150000000000E+01    0.0000000000000000E+00
       C     0.0000000000000000E+00    0.0000000000000000E+00    2.5602979999999999E+01
       PERIODIC  XYZ
       MULTIPLE_UNIT_CELL  1 1 1
     &END CELL
     &COORD
S    9.3836215958218858E+00    1.1470784275287162E+01    1.6916244345227096E+01
C    9.3822354067003850E+00    1.1469299703348845E+01    1.5192838430760210E+01
C    8.1603226066686894E+00    1.1469085159257563E+01    1.4532002962689056E+01
C    1.0604319004211698E+01    1.1469063765596500E+01    1.4532275904390476E+01
S    9.3841177920653411E+00    1.1470281886796862E+01    1.0773947809008629E+01
C    9.3826748883573572E+00    1.1468473991946706E+01    1.2497675576134986E+01
C    1.0604452499298834E+01    1.1468555460874562E+01    1.3158892891005358E+01
C    8.1606983199862615E+00    1.1468599946371567E+01    1.3158489524285526E+01
H    7.2318421434096845E+00    1.1469795623312050E+01    1.5106411432671345E+01
H    1.1532486136122792E+01    1.1469680655147060E+01    1.5107131767841475E+01
H    1.1532921606840691E+01    1.1468666506765722E+01    1.2584533416137765E+01
H    7.2324335340270061E+00    1.1468742832313300E+01    1.2583754501827901E+01
Au    1.0428210000000000E+00    1.0428210000000000E+00    9.3853999999999971E+00
Au    3.1284650000000003E+00    3.1284650000000003E+00    9.3853999999999971E+00
Au    5.2141089999999997E+00    1.0428210000000000E+00    9.3853999999999971E+00
Au    1.3556685000000002E+01    1.0428210000000000E+00    9.3853999999999971E+00
Au    1.0428210000000000E+00    5.2141089999999997E+00    9.3853999999999971E+00
Au    1.0428210000000000E+00    1.3556685000000002E+01    9.3853999999999971E+00
Au    7.2997530000000008E+00    3.1284650000000003E+00    9.3853999999999971E+00
Au    1.5642329000000000E+01    3.1284650000000003E+00    9.3853999999999971E+00
Au    3.1284650000000003E+00    7.2997530000000008E+00    9.3853999999999971E+00
Au    3.1284650000000003E+00    1.5642329000000000E+01    9.3853999999999971E+00
Au    5.2141089999999997E+00    5.2141089999999997E+00    9.3853999999999971E+00
Au    1.3556685000000002E+01    1.3556685000000002E+01    9.3853999999999971E+00
Au    1.3556685000000002E+01    5.2141089999999997E+00    9.3853999999999971E+00
Au    5.2141089999999997E+00    1.3556685000000002E+01    9.3853999999999971E+00
Au    7.2997530000000008E+00    7.2997530000000008E+00    9.3853999999999971E+00
Au    1.5642329000000000E+01    1.5642329000000000E+01    9.3853999999999971E+00
Au    1.5642329000000000E+01    7.2997530000000008E+00    9.3853999999999971E+00
Au    7.2997530000000008E+00    1.5642329000000000E+01    9.3853999999999971E+00
Au    1.0428210000000000E+00    9.3853969999999993E+00    9.3853999999999971E+00
Au    9.3853969999999993E+00    1.0428210000000000E+00    9.3853999999999971E+00
Au    3.1284650000000003E+00    1.1471041000000001E+01    9.3853999999999971E+00
Au    1.1471041000000001E+01    3.1284650000000003E+00    9.3853999999999971E+00
Au    9.3853969999999993E+00    5.2141089999999997E+00    9.3853999999999971E+00
Au    9.3853969999999993E+00    1.3556685000000002E+01    9.3853999999999971E+00
Au    5.2141089999999997E+00    9.3853969999999993E+00    9.3853999999999971E+00
Au    1.3556685000000002E+01    9.3853969999999993E+00    9.3853999999999971E+00
Au    1.1471041000000001E+01    7.2997530000000008E+00    9.3853999999999971E+00
Au    1.1471041000000001E+01    1.5642329000000000E+01    9.3853999999999971E+00
Au    7.2997530000000008E+00    1.1471041000000001E+01    9.3853999999999971E+00
Au    1.5642329000000000E+01    1.1471041000000001E+01    9.3853999999999971E+00
Au    9.3853969999999993E+00    9.3853969999999993E+00    9.3853999999999971E+00
Au    1.1471041000000001E+01    1.1471041000000001E+01    9.3853999999999971E+00
Au    1.0428210000000000E+00    1.0428210000000000E+00    1.8303225000000005E+01
Au    3.1284650000000003E+00    3.1284650000000003E+00    1.8303225000000005E+01
Au    5.2141089999999997E+00    1.0428210000000000E+00    1.8303225000000005E+01
Au    1.3556685000000002E+01    1.0428210000000000E+00    1.8303225000000005E+01
Au    1.0428210000000000E+00    5.2141089999999997E+00    1.8303225000000005E+01
Au    1.0428210000000000E+00    1.3556685000000002E+01    1.8303225000000005E+01
Au    7.2997530000000008E+00    3.1284650000000003E+00    1.8303225000000005E+01
Au    1.5642329000000000E+01    3.1284650000000003E+00    1.8303225000000005E+01
Au    3.1284650000000003E+00    7.2997530000000008E+00    1.8303225000000005E+01
Au    3.1284650000000003E+00    1.5642329000000000E+01    1.8303225000000005E+01
Au    5.2141089999999997E+00    5.2141089999999997E+00    1.8303225000000005E+01
Au    1.3556685000000002E+01    1.3556685000000002E+01    1.8303225000000005E+01
Au    1.3556685000000002E+01    5.2141089999999997E+00    1.8303225000000005E+01
Au    5.2141089999999997E+00    1.3556685000000002E+01    1.8303225000000005E+01
Au    7.2997530000000008E+00    7.2997530000000008E+00    1.8303225000000005E+01
Au    1.5642329000000000E+01    1.5642329000000000E+01    1.8303225000000005E+01
Au    1.5642329000000000E+01    7.2997530000000008E+00    1.8303225000000005E+01
Au    7.2997530000000008E+00    1.5642329000000000E+01    1.8303225000000005E+01
Au    1.0428210000000000E+00    9.3853969999999993E+00    1.8303225000000005E+01
Au    9.3853969999999993E+00    1.0428210000000000E+00    1.8303225000000005E+01
Au    3.1284650000000003E+00    1.1471041000000001E+01    1.8303225000000005E+01
Au    1.1471041000000001E+01    3.1284650000000003E+00    1.8303225000000005E+01
Au    9.3853969999999993E+00    5.2141089999999997E+00    1.8303225000000005E+01
Au    9.3853969999999993E+00    1.3556685000000002E+01    1.8303225000000005E+01
Au    5.2141089999999997E+00    9.3853969999999993E+00    1.8303225000000005E+01
Au    1.3556685000000002E+01    9.3853969999999993E+00    1.8303225000000005E+01
Au    1.1471041000000001E+01    7.2997530000000008E+00    1.8303225000000005E+01
Au    1.1471041000000001E+01    1.5642329000000000E+01    1.8303225000000005E+01
Au    7.2997530000000008E+00    1.1471041000000001E+01    1.8303225000000005E+01
Au    1.5642329000000000E+01    1.1471041000000001E+01    1.8303225000000005E+01
Au    9.3853969999999993E+00    9.3853969999999993E+00    1.8303225000000005E+01
Au    1.1471041000000001E+01    1.1471041000000001E+01    1.8303225000000005E+01
Au    1.0428210000000000E+00    3.1284650000000003E+00    7.2997559999999986E+00
Au    3.1284650000000003E+00    1.0428210000000000E+00    7.2997559999999986E+00
Au    1.0428210000000000E+00    7.2997530000000008E+00    7.2997559999999986E+00
Au    1.0428210000000000E+00    1.5642329000000000E+01    7.2997559999999986E+00
Au    5.2141089999999997E+00    3.1284650000000003E+00    7.2997559999999986E+00
Au    1.3556685000000002E+01    3.1284650000000003E+00    7.2997559999999986E+00
Au    3.1284650000000003E+00    5.2141089999999997E+00    7.2997559999999986E+00
Au    3.1284650000000003E+00    1.3556685000000002E+01    7.2997559999999986E+00
Au    7.2997530000000008E+00    1.0428210000000000E+00    7.2997559999999986E+00
Au    1.5642329000000000E+01    1.0428210000000000E+00    7.2997559999999986E+00
Au    1.0428210000000000E+00    1.1471041000000001E+01    7.2997559999999986E+00
Au    9.3853969999999993E+00    3.1284650000000003E+00    7.2997559999999986E+00
Au    3.1284650000000003E+00    9.3853969999999993E+00    7.2997559999999986E+00
Au    1.1471041000000001E+01    1.0428210000000000E+00    7.2997559999999986E+00
Au    5.2141089999999997E+00    7.2997530000000008E+00    7.2997559999999986E+00
Au    1.3556685000000002E+01    1.5642329000000000E+01    7.2997559999999986E+00
Au    1.3556685000000002E+01    7.2997530000000008E+00    7.2997559999999986E+00
Au    5.2141089999999997E+00    1.5642329000000000E+01    7.2997559999999986E+00
Au    7.2997530000000008E+00    5.2141089999999997E+00    7.2997559999999986E+00
Au    1.5642329000000000E+01    1.3556685000000002E+01    7.2997559999999986E+00
Au    1.5642329000000000E+01    5.2141089999999997E+00    7.2997559999999986E+00
Au    7.2997530000000008E+00    1.3556685000000002E+01    7.2997559999999986E+00
Au    5.2141089999999997E+00    1.1471041000000001E+01    7.2997559999999986E+00
Au    1.3556685000000002E+01    1.1471041000000001E+01    7.2997559999999986E+00
Au    9.3853969999999993E+00    7.2997530000000008E+00    7.2997559999999986E+00
Au    9.3853969999999993E+00    1.5642329000000000E+01    7.2997559999999986E+00
Au    7.2997530000000008E+00    9.3853969999999993E+00    7.2997559999999986E+00
Au    1.5642329000000000E+01    9.3853969999999993E+00    7.2997559999999986E+00
Au    1.1471041000000001E+01    5.2141089999999997E+00    7.2997559999999986E+00
Au    1.1471041000000001E+01    1.3556685000000002E+01    7.2997559999999986E+00
Au    9.3853969999999993E+00    1.1471041000000001E+01    7.2997559999999986E+00
Au    1.1471041000000001E+01    9.3853969999999993E+00    7.2997559999999986E+00
Au    1.0428210000000000E+00    3.1284650000000003E+00    2.0388868999999996E+01
Au    3.1284650000000003E+00    1.0428210000000000E+00    2.0388868999999996E+01
Au    5.2141089999999997E+00    3.1284650000000003E+00    2.0388868999999996E+01
Au    1.3556685000000002E+01    3.1284650000000003E+00    2.0388868999999996E+01
Au    1.0428210000000000E+00    7.2997530000000008E+00    2.0388868999999996E+01
Au    1.0428210000000000E+00    1.5642329000000000E+01    2.0388868999999996E+01
Au    7.2997530000000008E+00    1.0428210000000000E+00    2.0388868999999996E+01
Au    1.5642329000000000E+01    1.0428210000000000E+00    2.0388868999999996E+01
Au    3.1284650000000003E+00    5.2141089999999997E+00    2.0388868999999996E+01
Au    3.1284650000000003E+00    1.3556685000000002E+01    2.0388868999999996E+01
Au    5.2141089999999997E+00    7.2997530000000008E+00    2.0388868999999996E+01
Au    1.3556685000000002E+01    1.5642329000000000E+01    2.0388868999999996E+01
Au    1.3556685000000002E+01    7.2997530000000008E+00    2.0388868999999996E+01
Au    5.2141089999999997E+00    1.5642329000000000E+01    2.0388868999999996E+01
Au    7.2997530000000008E+00    5.2141089999999997E+00    2.0388868999999996E+01
Au    1.5642329000000000E+01    1.3556685000000002E+01    2.0388868999999996E+01
Au    1.5642329000000000E+01    5.2141089999999997E+00    2.0388868999999996E+01
Au    7.2997530000000008E+00    1.3556685000000002E+01    2.0388868999999996E+01
Au    1.0428210000000000E+00    1.1471041000000001E+01    2.0388868999999996E+01
Au    9.3853969999999993E+00    3.1284650000000003E+00    2.0388868999999996E+01
Au    3.1284650000000003E+00    9.3853969999999993E+00    2.0388868999999996E+01
Au    1.1471041000000001E+01    1.0428210000000000E+00    2.0388868999999996E+01
Au    9.3853969999999993E+00    7.2997530000000008E+00    2.0388868999999996E+01
Au    9.3853969999999993E+00    1.5642329000000000E+01    2.0388868999999996E+01
Au    5.2141089999999997E+00    1.1471041000000001E+01    2.0388868999999996E+01
Au    1.3556685000000002E+01    1.1471041000000001E+01    2.0388868999999996E+01
Au    1.1471041000000001E+01    5.2141089999999997E+00    2.0388868999999996E+01
Au    1.1471041000000001E+01    1.3556685000000002E+01    2.0388868999999996E+01
Au    7.2997530000000008E+00    9.3853969999999993E+00    2.0388868999999996E+01
Au    1.5642329000000000E+01    9.3853969999999993E+00    2.0388868999999996E+01
Au    9.3853969999999993E+00    1.1471041000000001E+01    2.0388868999999996E+01
Au    1.1471041000000001E+01    9.3853969999999993E+00    2.0388868999999996E+01
Au    1.0428210000000000E+00    1.0428210000000000E+00    1.0428239999999978E+00
Au    1.0428210000000000E+00    3.1284650000000003E+00    3.1284679999999980E+00
Au    3.1284650000000003E+00    1.0428210000000000E+00    3.1284679999999980E+00
Au    3.1284650000000003E+00    3.1284650000000003E+00    1.0428239999999978E+00
Au    1.0428210000000000E+00    1.0428210000000000E+00    5.2141119999999983E+00
Au    5.2141089999999997E+00    1.0428210000000000E+00    1.0428239999999978E+00
Au    1.3556685000000002E+01    1.0428210000000000E+00    1.0428239999999978E+00
Au    1.0428210000000000E+00    5.2141089999999997E+00    1.0428239999999978E+00
Au    1.0428210000000000E+00    1.3556685000000002E+01    1.0428239999999978E+00
Au    5.2141089999999997E+00    3.1284650000000003E+00    3.1284679999999980E+00
Au    1.3556685000000002E+01    3.1284650000000003E+00    3.1284679999999980E+00
Au    1.0428210000000000E+00    7.2997530000000008E+00    3.1284679999999980E+00
Au    1.0428210000000000E+00    1.5642329000000000E+01    3.1284679999999980E+00
Au    7.2997530000000008E+00    1.0428210000000000E+00    3.1284679999999980E+00
Au    1.5642329000000000E+01    1.0428210000000000E+00    3.1284679999999980E+00
Au    3.1284650000000003E+00    5.2141089999999997E+00    3.1284679999999980E+00
Au    3.1284650000000003E+00    1.3556685000000002E+01    3.1284679999999980E+00
Au    3.1284650000000003E+00    3.1284650000000003E+00    5.2141119999999983E+00
Au    7.2997530000000008E+00    3.1284650000000003E+00    1.0428239999999978E+00
Au    1.5642329000000000E+01    3.1284650000000003E+00    1.0428239999999978E+00
Au    3.1284650000000003E+00    7.2997530000000008E+00    1.0428239999999978E+00
Au    3.1284650000000003E+00    1.5642329000000000E+01    1.0428239999999978E+00
Au    1.0428210000000000E+00    5.2141089999999997E+00    5.2141119999999983E+00
Au    1.0428210000000000E+00    1.3556685000000002E+01    5.2141119999999983E+00
Au    5.2141089999999997E+00    1.0428210000000000E+00    5.2141119999999983E+00
Au    1.3556685000000002E+01    1.0428210000000000E+00    5.2141119999999983E+00
Au    5.2141089999999997E+00    5.2141089999999997E+00    1.0428239999999978E+00
Au    1.3556685000000002E+01    1.3556685000000002E+01    1.0428239999999978E+00
Au    1.3556685000000002E+01    5.2141089999999997E+00    1.0428239999999978E+00
Au    5.2141089999999997E+00    1.3556685000000002E+01    1.0428239999999978E+00
Au    5.2141089999999997E+00    7.2997530000000008E+00    3.1284679999999980E+00
Au    1.3556685000000002E+01    1.5642329000000000E+01    3.1284679999999980E+00
Au    1.3556685000000002E+01    7.2997530000000008E+00    3.1284679999999980E+00
Au    5.2141089999999997E+00    1.5642329000000000E+01    3.1284679999999980E+00
Au    7.2997530000000008E+00    5.2141089999999997E+00    3.1284679999999980E+00
Au    1.5642329000000000E+01    1.3556685000000002E+01    3.1284679999999980E+00
Au    1.5642329000000000E+01    5.2141089999999997E+00    3.1284679999999980E+00
Au    7.2997530000000008E+00    1.3556685000000002E+01    3.1284679999999980E+00
Au    3.1284650000000003E+00    7.2997530000000008E+00    5.2141119999999983E+00
Au    3.1284650000000003E+00    1.5642329000000000E+01    5.2141119999999983E+00
Au    7.2997530000000008E+00    3.1284650000000003E+00    5.2141119999999983E+00
Au    1.5642329000000000E+01    3.1284650000000003E+00    5.2141119999999983E+00
Au    7.2997530000000008E+00    7.2997530000000008E+00    1.0428239999999978E+00
Au    1.5642329000000000E+01    1.5642329000000000E+01    1.0428239999999978E+00
Au    1.5642329000000000E+01    7.2997530000000008E+00    1.0428239999999978E+00
Au    7.2997530000000008E+00    1.5642329000000000E+01    1.0428239999999978E+00
Au    1.0428210000000000E+00    9.3853969999999993E+00    1.0428239999999978E+00
Au    9.3853969999999993E+00    1.0428210000000000E+00    1.0428239999999978E+00
Au    1.0428210000000000E+00    1.1471041000000001E+01    3.1284679999999980E+00
Au    9.3853969999999993E+00    3.1284650000000003E+00    3.1284679999999980E+00
Au    3.1284650000000003E+00    9.3853969999999993E+00    3.1284679999999980E+00
Au    1.1471041000000001E+01    1.0428210000000000E+00    3.1284679999999980E+00
Au    3.1284650000000003E+00    1.1471041000000001E+01    1.0428239999999978E+00
Au    1.1471041000000001E+01    3.1284650000000003E+00    1.0428239999999978E+00
Au    1.0428210000000000E+00    9.3853969999999993E+00    5.2141119999999983E+00
Au    9.3853969999999993E+00    5.2141089999999997E+00    1.0428239999999978E+00
Au    9.3853969999999993E+00    1.3556685000000002E+01    1.0428239999999978E+00
Au    9.3853969999999993E+00    1.0428210000000000E+00    5.2141119999999983E+00
Au    5.2141089999999997E+00    9.3853969999999993E+00    1.0428239999999978E+00
Au    1.3556685000000002E+01    9.3853969999999993E+00    1.0428239999999978E+00
Au    9.3853969999999993E+00    7.2997530000000008E+00    3.1284679999999980E+00
Au    9.3853969999999993E+00    1.5642329000000000E+01    3.1284679999999980E+00
Au    5.2141089999999997E+00    1.1471041000000001E+01    3.1284679999999980E+00
Au    1.3556685000000002E+01    1.1471041000000001E+01    3.1284679999999980E+00
Au    1.1471041000000001E+01    5.2141089999999997E+00    3.1284679999999980E+00
Au    1.1471041000000001E+01    1.3556685000000002E+01    3.1284679999999980E+00
Au    7.2997530000000008E+00    9.3853969999999993E+00    3.1284679999999980E+00
Au    1.5642329000000000E+01    9.3853969999999993E+00    3.1284679999999980E+00
Au    3.1284650000000003E+00    1.1471041000000001E+01    5.2141119999999983E+00
Au    1.1471041000000001E+01    7.2997530000000008E+00    1.0428239999999978E+00
Au    1.1471041000000001E+01    1.5642329000000000E+01    1.0428239999999978E+00
Au    1.1471041000000001E+01    3.1284650000000003E+00    5.2141119999999983E+00
Au    7.2997530000000008E+00    1.1471041000000001E+01    1.0428239999999978E+00
Au    1.5642329000000000E+01    1.1471041000000001E+01    1.0428239999999978E+00
Au    5.2141089999999997E+00    5.2141089999999997E+00    5.2141119999999983E+00
Au    1.3556685000000002E+01    1.3556685000000002E+01    5.2141119999999983E+00
Au    1.3556685000000002E+01    5.2141089999999997E+00    5.2141119999999983E+00
Au    5.2141089999999997E+00    1.3556685000000002E+01    5.2141119999999983E+00
Au    7.2997530000000008E+00    7.2997530000000008E+00    5.2141119999999983E+00
Au    1.5642329000000000E+01    1.5642329000000000E+01    5.2141119999999983E+00
Au    1.5642329000000000E+01    7.2997530000000008E+00    5.2141119999999983E+00
Au    7.2997530000000008E+00    1.5642329000000000E+01    5.2141119999999983E+00
Au    5.2141089999999997E+00    9.3853969999999993E+00    5.2141119999999983E+00
Au    1.3556685000000002E+01    9.3853969999999993E+00    5.2141119999999983E+00
Au    9.3853969999999993E+00    5.2141089999999997E+00    5.2141119999999983E+00
Au    9.3853969999999993E+00    1.3556685000000002E+01    5.2141119999999983E+00
Au    7.2997530000000008E+00    1.1471041000000001E+01    5.2141119999999983E+00
Au    1.5642329000000000E+01    1.1471041000000001E+01    5.2141119999999983E+00
Au    1.1471041000000001E+01    7.2997530000000008E+00    5.2141119999999983E+00
Au    1.1471041000000001E+01    1.5642329000000000E+01    5.2141119999999983E+00
Au    9.3853969999999993E+00    9.3853969999999993E+00    1.0428239999999978E+00
Au    9.3853969999999993E+00    1.1471041000000001E+01    3.1284679999999980E+00
Au    1.1471041000000001E+01    9.3853969999999993E+00    3.1284679999999980E+00
Au    1.1471041000000001E+01    1.1471041000000001E+01    1.0428239999999978E+00
Au    9.3853969999999993E+00    9.3853969999999993E+00    5.2141119999999983E+00
Au    1.1471041000000001E+01    1.1471041000000001E+01    5.2141119999999983E+00
Au    1.0428210000000000E+00    1.0428210000000000E+00    2.2474511999999997E+01
Au    1.0428210000000000E+00    3.1284650000000003E+00    2.4560155999999999E+01
Au    3.1284650000000003E+00    1.0428210000000000E+00    2.4560155999999999E+01
Au    3.1284650000000003E+00    3.1284650000000003E+00    2.2474511999999997E+01
Au    1.0428210000000000E+00    5.2141089999999997E+00    2.2474511999999997E+01
Au    1.0428210000000000E+00    1.3556685000000002E+01    2.2474511999999997E+01
Au    5.2141089999999997E+00    1.0428210000000000E+00    2.2474511999999997E+01
Au    1.3556685000000002E+01    1.0428210000000000E+00    2.2474511999999997E+01
Au    1.0428210000000000E+00    7.2997530000000008E+00    2.4560155999999999E+01
Au    1.0428210000000000E+00    1.5642329000000000E+01    2.4560155999999999E+01
Au    5.2141089999999997E+00    3.1284650000000003E+00    2.4560155999999999E+01
Au    1.3556685000000002E+01    3.1284650000000003E+00    2.4560155999999999E+01
Au    3.1284650000000003E+00    5.2141089999999997E+00    2.4560155999999999E+01
Au    3.1284650000000003E+00    1.3556685000000002E+01    2.4560155999999999E+01
Au    7.2997530000000008E+00    1.0428210000000000E+00    2.4560155999999999E+01
Au    1.5642329000000000E+01    1.0428210000000000E+00    2.4560155999999999E+01
Au    3.1284650000000003E+00    7.2997530000000008E+00    2.2474511999999997E+01
Au    3.1284650000000003E+00    1.5642329000000000E+01    2.2474511999999997E+01
Au    7.2997530000000008E+00    3.1284650000000003E+00    2.2474511999999997E+01
Au    1.5642329000000000E+01    3.1284650000000003E+00    2.2474511999999997E+01
Au    1.0428210000000000E+00    9.3853969999999993E+00    2.2474511999999997E+01
Au    9.3853969999999993E+00    1.0428210000000000E+00    2.2474511999999997E+01
Au    1.0428210000000000E+00    1.1471041000000001E+01    2.4560155999999999E+01
Au    9.3853969999999993E+00    3.1284650000000003E+00    2.4560155999999999E+01
Au    3.1284650000000003E+00    9.3853969999999993E+00    2.4560155999999999E+01
Au    1.1471041000000001E+01    1.0428210000000000E+00    2.4560155999999999E+01
Au    3.1284650000000003E+00    1.1471041000000001E+01    2.2474511999999997E+01
Au    1.1471041000000001E+01    3.1284650000000003E+00    2.2474511999999997E+01
Au    5.2141089999999997E+00    5.2141089999999997E+00    2.2474511999999997E+01
Au    1.3556685000000002E+01    1.3556685000000002E+01    2.2474511999999997E+01
Au    1.3556685000000002E+01    5.2141089999999997E+00    2.2474511999999997E+01
Au    5.2141089999999997E+00    1.3556685000000002E+01    2.2474511999999997E+01
Au    5.2141089999999997E+00    7.2997530000000008E+00    2.4560155999999999E+01
Au    1.3556685000000002E+01    1.5642329000000000E+01    2.4560155999999999E+01
Au    1.3556685000000002E+01    7.2997530000000008E+00    2.4560155999999999E+01
Au    5.2141089999999997E+00    1.5642329000000000E+01    2.4560155999999999E+01
Au    7.2997530000000008E+00    5.2141089999999997E+00    2.4560155999999999E+01
Au    1.5642329000000000E+01    1.3556685000000002E+01    2.4560155999999999E+01
Au    1.5642329000000000E+01    5.2141089999999997E+00    2.4560155999999999E+01
Au    7.2997530000000008E+00    1.3556685000000002E+01    2.4560155999999999E+01
Au    7.2997530000000008E+00    7.2997530000000008E+00    2.2474511999999997E+01
Au    1.5642329000000000E+01    1.5642329000000000E+01    2.2474511999999997E+01
Au    1.5642329000000000E+01    7.2997530000000008E+00    2.2474511999999997E+01
Au    7.2997530000000008E+00    1.5642329000000000E+01    2.2474511999999997E+01
Au    5.2141089999999997E+00    9.3853969999999993E+00    2.2474511999999997E+01
Au    1.3556685000000002E+01    9.3853969999999993E+00    2.2474511999999997E+01
Au    9.3853969999999993E+00    5.2141089999999997E+00    2.2474511999999997E+01
Au    9.3853969999999993E+00    1.3556685000000002E+01    2.2474511999999997E+01
Au    5.2141089999999997E+00    1.1471041000000001E+01    2.4560155999999999E+01
Au    1.3556685000000002E+01    1.1471041000000001E+01    2.4560155999999999E+01
Au    9.3853969999999993E+00    7.2997530000000008E+00    2.4560155999999999E+01
Au    9.3853969999999993E+00    1.5642329000000000E+01    2.4560155999999999E+01
Au    7.2997530000000008E+00    9.3853969999999993E+00    2.4560155999999999E+01
Au    1.5642329000000000E+01    9.3853969999999993E+00    2.4560155999999999E+01
Au    1.1471041000000001E+01    5.2141089999999997E+00    2.4560155999999999E+01
Au    1.1471041000000001E+01    1.3556685000000002E+01    2.4560155999999999E+01
Au    7.2997530000000008E+00    1.1471041000000001E+01    2.2474511999999997E+01
Au    1.5642329000000000E+01    1.1471041000000001E+01    2.2474511999999997E+01
Au    1.1471041000000001E+01    7.2997530000000008E+00    2.2474511999999997E+01
Au    1.1471041000000001E+01    1.5642329000000000E+01    2.2474511999999997E+01
Au    9.3853969999999993E+00    9.3853969999999993E+00    2.2474511999999997E+01
Au    9.3853969999999993E+00    1.1471041000000001E+01    2.4560155999999999E+01
Au    1.1471041000000001E+01    9.3853969999999993E+00    2.4560155999999999E+01
Au    1.1471041000000001E+01    1.1471041000000001E+01    2.2474511999999997E+01
     &END COORD
     &KIND Au
       BASIS_SET SZV-MOLOPT-SR-GTH
       POTENTIAL GTH-PADE-q11
       &POTENTIAL
 1 0 10
  0.5900000000000000E+00 1  0.1160442790000000E+02
 3
  0.5211797500000001E+00 2  0.2538613590000000E+01 -0.1046136640000000E+01
  0.2701113200000000E+01
  0.6306130599999999E+00 2  0.3948527000000000E+00 -0.8695921300000000E+00
  0.2057830560000000E+01
  0.4407064300000000E+00 2 -0.4719069660000000E+01  0.7277708100000000E+00
 -0.1650429070000000E+01
         # Potential name:  GTH-PADE-Q11  for symbol:  AU
         # Potential read from the potential filename: GTH_POTENTIALS
       &END POTENTIAL
     &END KIND
     &KIND C
       BASIS_SET DZVP-MOLOPT-SR-GTH
       ELEMENT C
       POTENTIAL GTH-PADE-q4
       &POTENTIAL
 2 2
  0.3488304500000000E+00 2 -0.8513771100000000E+01  0.1228432030000000E+01
 2
  0.3045532100000000E+00 1  0.9522841789999999E+01
  0.2326773000000000E+00 0
         # Potential name:  GTH-PADE-Q4  for symbol:  C
         # Potential read from the potential filename: GTH_POTENTIALS
       &END POTENTIAL
     &END KIND
     &KIND S
       BASIS_SET DZVP-MOLOPT-SR-GTH
       ELEMENT S
       POTENTIAL GTH-PADE-q6
       &POTENTIAL
 2 4
  0.4200000000000000E+00 1 -0.6554491840000000E+01
 2
  0.3617566500000000E+00 2  0.7905302500000000E+01 -0.1731881300000000E+01
  0.4471698300000000E+01
  0.4052850200000000E+00 1  0.3866579000000000E+01
         # Potential name:  GTH-PADE-Q6  for symbol:  S
         # Potential read from the potential filename: GTH_POTENTIALS
       &END POTENTIAL
     &END KIND
     &KIND H
       BASIS_SET DZVP-MOLOPT-SR-GTH
       ELEMENT H
       POTENTIAL GTH-PADE-q1
       &POTENTIAL
 1
  0.2000000000000000E+00 2 -0.4180236800000000E+01  0.7250748200000000E+00
 0
         # Potential name:  GTH-PADE-Q1  for symbol:  H
         # Potential read from the potential filename: GTH_POTENTIALS
       &END POTENTIAL
     &END KIND
     &TOPOLOGY
       COORD_FILE_NAME em.xyz
       COORD_FILE_FORMAT  XYZ
       NUMBER_OF_ATOMS  300
       MULTIPLE_UNIT_CELL  1 1 1
       &CENTER_COORDINATES  T
       &END CENTER_COORDINATES
     &END TOPOLOGY
   &END SUBSYS
   &PRINT
     &FORCES  ON
     &END FORCES
   &END PRINT
 &END FORCE_EVAL
