 # Version information for this restart file 
 # current date 2023-02-21 21:57:19.562
 # current working dir /work4/scd/scarf1157/work/testing/cp2k-smeagol/bdt/cp2k/hollow-site/transport-cp2k/5-4/geometry-ordered/3x3-4/sz/bulk_layers-4/geo_opt/Au-S-2.55_dft
 # Program compiled at                              Thu 26 Jan 13:39:53 GMT 2023
 # Program compiled on                                     cn1108.scarf.rl.ac.uk
 # Program compiled for                                                    local
 # Source code revision number                                       git:1ef701d
 &GLOBAL
   EXTENDED_FFT_LENGTHS  T
   PRINT_LEVEL  MEDIUM
   PROJECT_NAME dft_wfn
   RUN_TYPE  GEO_OPT
 &END GLOBAL
 &MOTION
   &GEO_OPT
     OPTIMIZER  BFGS
     MAX_ITER  1000
     STEP_START_VAL  10
   &END GEO_OPT
   &CONSTRAINT
     &FIXED_ATOMS
       LIST  1..40 76..116
     &END FIXED_ATOMS
   &END CONSTRAINT
   &PRINT
     &TRAJECTORY  ON
       FORMAT  XMOL
     &END TRAJECTORY
   &END PRINT
 &END MOTION
 &FORCE_EVAL
   METHOD  QS
   &DFT
     BASIS_SET_FILE_NAME BASIS_MOLOPT
     POTENTIAL_FILE_NAME GTH_POTENTIALS
     &SCF
       MAX_SCF  100
       EPS_SCF     9.9999999999999995E-08
       SCF_GUESS  ATOMIC
       ADDED_MOS  100
       &SMEAR  T
         METHOD  FERMI_DIRAC
         ELECTRONIC_TEMPERATURE     2.9300000000000000E+02
       &END SMEAR
       &MIXING  T
         METHOD  BROYDEN_MIXING
         ALPHA     2.9999999999999999E-01
         NBUFFER  8
       &END MIXING
       &PRINT
         &RESTART  SILENT
           FILENAME RESTART_0
         &END RESTART
       &END PRINT
     &END SCF
     &MGRID
       CUTOFF     4.0000000000000000E+02
     &END MGRID
     &XC
       DENSITY_CUTOFF     1.0000000000000000E-10
       GRADIENT_CUTOFF     1.0000000000000000E-10
       TAU_CUTOFF     1.0000000000000000E-10
       &XC_FUNCTIONAL  NO_SHORTCUT
         &PADE  T
         &END PADE
       &END XC_FUNCTIONAL
     &END XC
     &POISSON
       PERIODIC  XYZ
     &END POISSON
     &KPOINTS
       SCHEME MONKHORST-PACK 2 2 1
       SYMMETRY  F
       FULL_GRID  T
       VERBOSE  T
       EPS_GEO     1.0000000000000000E-08
       PARALLEL_GROUP_SIZE  0
     &END KPOINTS
     &PRINT
       &E_DENSITY_CUBE  ON
         STRIDE  2 2 2
       &END E_DENSITY_CUBE
       &V_HARTREE_CUBE  SILENT
         STRIDE  2 2 2
       &END V_HARTREE_CUBE
       &HIRSHFELD  SILENT
         SHAPE_FUNCTION  DENSITY
       &END HIRSHFELD
     &END PRINT
   &END DFT
   &SUBSYS
     &CELL
       A     8.2919999999999998E+00    0.0000000000000000E+00    0.0000000000000000E+00
       B     0.0000000000000000E+00    8.2919999999999998E+00    0.0000000000000000E+00
       C     0.0000000000000000E+00    0.0000000000000000E+00    3.4192999999999998E+01
       PERIODIC  XYZ
       MULTIPLE_UNIT_CELL  1 1 1
     &END CELL
     &COORD
Au    0.0000000000000000E+00    0.0000000000000000E+00    0.0000000000000000E+00
Au    0.0000000000000000E+00    4.1459999999999999E+00    0.0000000000000000E+00
Au    2.0730000000000000E+00    2.0730000000000000E+00    0.0000000000000000E+00
Au    2.0730000000000000E+00    6.2190000000000012E+00    0.0000000000000000E+00
Au    4.1459999999999999E+00    0.0000000000000000E+00    0.0000000000000000E+00
Au    4.1459999999999999E+00    4.1459999999999999E+00    0.0000000000000000E+00
Au    6.2190000000000012E+00    2.0730000000000000E+00    0.0000000000000000E+00
Au    6.2190000000000012E+00    6.2190000000000012E+00    0.0000000000000000E+00
Au    0.0000000000000000E+00    2.0730000000000000E+00    2.0730000000000000E+00
Au    0.0000000000000000E+00    6.2190000000000012E+00    2.0730000000000000E+00
Au    2.0730000000000000E+00    0.0000000000000000E+00    2.0730000000000000E+00
Au    2.0730000000000000E+00    4.1459999999999999E+00    2.0730000000000000E+00
Au    4.1459999999999999E+00    2.0730000000000000E+00    2.0730000000000000E+00
Au    4.1459999999999999E+00    6.2190000000000012E+00    2.0730000000000000E+00
Au    6.2190000000000012E+00    0.0000000000000000E+00    2.0730000000000000E+00
Au    6.2190000000000012E+00    4.1459999999999999E+00    2.0730000000000000E+00
Au    0.0000000000000000E+00    0.0000000000000000E+00    4.1459999999999999E+00
Au    0.0000000000000000E+00    4.1459999999999999E+00    4.1459999999999999E+00
Au    2.0730000000000000E+00    2.0730000000000000E+00    4.1459999999999999E+00
Au    2.0730000000000000E+00    6.2190000000000012E+00    4.1459999999999999E+00
Au    4.1459999999999999E+00    0.0000000000000000E+00    4.1459999999999999E+00
Au    4.1459999999999999E+00    4.1459999999999999E+00    4.1459999999999999E+00
Au    6.2190000000000012E+00    2.0730000000000000E+00    4.1459999999999999E+00
Au    6.2190000000000012E+00    6.2190000000000012E+00    4.1459999999999999E+00
Au    0.0000000000000000E+00    2.0730000000000000E+00    6.2190000000000012E+00
Au    0.0000000000000000E+00    6.2190000000000012E+00    6.2190000000000012E+00
Au    2.0730000000000000E+00    0.0000000000000000E+00    6.2190000000000012E+00
Au    2.0730000000000000E+00    4.1459999999999999E+00    6.2190000000000012E+00
Au    4.1459999999999999E+00    2.0730000000000000E+00    6.2190000000000012E+00
Au    4.1459999999999999E+00    6.2190000000000012E+00    6.2190000000000012E+00
Au    6.2190000000000012E+00    0.0000000000000000E+00    6.2190000000000012E+00
Au    6.2190000000000012E+00    4.1459999999999999E+00    6.2190000000000012E+00
Au    0.0000000000000000E+00    0.0000000000000000E+00    8.2919999999999998E+00
Au    0.0000000000000000E+00    4.1459999999999999E+00    8.2919999999999998E+00
Au    2.0730000000000000E+00    2.0730000000000000E+00    8.2919999999999998E+00
Au    2.0730000000000000E+00    6.2190000000000012E+00    8.2919999999999998E+00
Au    4.1459999999999999E+00    0.0000000000000000E+00    8.2919999999999998E+00
Au    4.1459999999999999E+00    4.1459999999999999E+00    8.2919999999999998E+00
Au    6.2190000000000012E+00    2.0730000000000000E+00    8.2919999999999998E+00
Au    6.2190000000000012E+00    6.2190000000000012E+00    8.2919999999999998E+00
Au   -2.0492351991534759E-04    2.0734751002400831E+00    1.0368921482126652E+01
Au   -9.5833796574639463E-05    6.2181154709727151E+00    1.0333980754304536E+01
Au    2.0857840799353684E+00    2.5085569368173972E-02    1.0387345411822551E+01
Au    2.0869557124981779E+00    4.1205482764308270E+00    1.0389886044976274E+01
Au    4.1459074697783667E+00    2.0737187155603447E+00    1.0370273242968461E+01
Au    4.1461516653000556E+00    6.2197770006103577E+00    1.0337446397059285E+01
Au    6.2063277322503287E+00    2.4968934751093710E-02    1.0387434123201638E+01
Au    6.2051429563668075E+00    4.1206636487275974E+00    1.0389989193119755E+01
Au   -2.5763165740598086E-04   -5.5476833120645275E-02    1.2470692048323237E+01
Au   -2.4822894900126404E-04    4.2008152378855961E+00    1.2469904963181058E+01
Au    1.9027850524072605E+00    2.0700766046989409E+00    1.2514163156429060E+01
Au    2.0033463182828255E+00    6.2215413547125067E+00    1.2456945007937449E+01
Au    4.1466107724485273E+00   -1.8133309759569166E-01    1.2462725583919939E+01
Au    4.1466043232425909E+00    4.3379473026461008E+00    1.2465917043504309E+01
Au    6.3886625740848455E+00    2.0700728923768099E+00    1.2514981609183669E+01
Au    6.2887653116841111E+00    6.2215532649374437E+00    1.2458646273329082E+01
S    4.1444907352888052E+00    2.0853223897853126E+00    1.3898443560446491E+01
C    4.1434270512198221E+00    2.0809315325118880E+00    1.5702453201657246E+01
H    1.9831409227156414E+00    2.0794318250891597E+00    1.5843721571912994E+01
H    6.3033683797343230E+00    2.0793512887995318E+00    1.5847148894557140E+01
C    2.9195722062508183E+00    2.0771181800757916E+00    1.6391234781475266E+01
C    5.3661335049984649E+00    2.0773671666832438E+00    1.6393252359299048E+01
C    2.9183470836494774E+00    2.0702981382830221E+00    1.7790639569732878E+01
C    5.3648980178726182E+00    2.0700785427566579E+00    1.7792639998384121E+01
H    1.9808267597610096E+00    2.0667243868336662E+00    1.8336058936225378E+01
H    6.3015317082833340E+00    2.0667913992597584E+00    1.8339508839859544E+01
C    4.1411004190158502E+00    2.0671529492877077E+00    1.8481745368406521E+01
S    4.1407397220128868E+00    2.0637083316111537E+00    2.0286216611207077E+01
Au   -1.7506553323951433E-02   -5.8987961620657850E-02    2.1719338178474622E+01
Au   -1.8982958316900403E-02    4.2061487023602906E+00    2.1717599697708124E+01
Au    1.8940449310184577E+00    2.0756009871105112E+00    2.1701082350264702E+01
Au    1.9967287398419518E+00    6.2164076050388175E+00    2.1712495385621381E+01
Au    4.1127235826953710E+00   -1.5549086339484425E-01    2.1739678777798886E+01
Au    4.1151034896494423E+00    4.2944821744429680E+00    2.1741367498787831E+01
Au    6.3722736817635415E+00    2.0747160023545850E+00    2.1708655950034302E+01
Au    6.2190000000000012E+00    6.2190000000000012E+00    2.1755000000000003E+01
Au    0.0000000000000000E+00    2.0730000000000000E+00    2.3827999999999999E+01
Au    0.0000000000000000E+00    6.2190000000000012E+00    2.3827999999999999E+01
Au    2.0730000000000000E+00    0.0000000000000000E+00    2.3827999999999999E+01
Au    2.0730000000000000E+00    4.1459999999999999E+00    2.3827999999999999E+01
Au    4.1459999999999999E+00    2.0730000000000000E+00    2.3827999999999999E+01
Au    4.1459999999999999E+00    6.2190000000000012E+00    2.3827999999999999E+01
Au    6.2190000000000012E+00    0.0000000000000000E+00    2.3827999999999999E+01
Au    6.2190000000000012E+00    4.1459999999999999E+00    2.3827999999999999E+01
Au    0.0000000000000000E+00    0.0000000000000000E+00    2.5901000000000000E+01
Au    0.0000000000000000E+00    4.1459999999999999E+00    2.5901000000000000E+01
Au    2.0730000000000000E+00    2.0730000000000000E+00    2.5901000000000000E+01
Au    2.0730000000000000E+00    6.2190000000000012E+00    2.5901000000000000E+01
Au    4.1459999999999999E+00    0.0000000000000000E+00    2.5901000000000000E+01
Au    4.1459999999999999E+00    4.1459999999999999E+00    2.5901000000000000E+01
Au    6.2190000000000012E+00    2.0730000000000000E+00    2.5901000000000000E+01
Au    6.2190000000000012E+00    6.2190000000000012E+00    2.5901000000000000E+01
Au    0.0000000000000000E+00    2.0730000000000000E+00    2.7974000000000004E+01
Au    0.0000000000000000E+00    6.2190000000000012E+00    2.7974000000000004E+01
Au    2.0730000000000000E+00    0.0000000000000000E+00    2.7974000000000004E+01
Au    2.0730000000000000E+00    4.1459999999999999E+00    2.7974000000000004E+01
Au    4.1459999999999999E+00    2.0730000000000000E+00    2.7974000000000004E+01
Au    4.1459999999999999E+00    6.2190000000000012E+00    2.7974000000000004E+01
Au    6.2190000000000012E+00    0.0000000000000000E+00    2.7974000000000004E+01
Au    6.2190000000000012E+00    4.1459999999999999E+00    2.7974000000000004E+01
Au    0.0000000000000000E+00    0.0000000000000000E+00    3.0047000000000001E+01
Au    0.0000000000000000E+00    4.1459999999999999E+00    3.0047000000000001E+01
Au    2.0730000000000000E+00    2.0730000000000000E+00    3.0047000000000001E+01
Au    2.0730000000000000E+00    6.2190000000000012E+00    3.0047000000000001E+01
Au    4.1459999999999999E+00    0.0000000000000000E+00    3.0047000000000001E+01
Au    4.1459999999999999E+00    4.1459999999999999E+00    3.0047000000000001E+01
Au    6.2190000000000012E+00    2.0730000000000000E+00    3.0047000000000001E+01
Au    6.2190000000000012E+00    6.2190000000000012E+00    3.0047000000000001E+01
Au    0.0000000000000000E+00    2.0730000000000000E+00    3.2119999999999997E+01
Au    0.0000000000000000E+00    6.2190000000000012E+00    3.2119999999999997E+01
Au    2.0730000000000000E+00    0.0000000000000000E+00    3.2119999999999997E+01
Au    2.0730000000000000E+00    4.1459999999999999E+00    3.2119999999999997E+01
Au    4.1459999999999999E+00    2.0730000000000000E+00    3.2119999999999997E+01
Au    4.1459999999999999E+00    6.2190000000000012E+00    3.2119999999999997E+01
Au    6.2190000000000012E+00    0.0000000000000000E+00    3.2119999999999997E+01
Au    6.2190000000000012E+00    4.1459999999999999E+00    3.2119999999999997E+01
     &END COORD
     &KIND Au
       BASIS_SET SZV-MOLOPT-SR-GTH
       POTENTIAL GTH-PADE-q11
       &POTENTIAL
 1 0 10
  0.5900000000000000E+00 1  0.1160442790000000E+02
 3
  0.5211797500000001E+00 2  0.2538613590000000E+01 -0.1046136640000000E+01
  0.2701113200000000E+01
  0.6306130599999999E+00 2  0.3948527000000000E+00 -0.8695921300000000E+00
  0.2057830560000000E+01
  0.4407064300000000E+00 2 -0.4719069660000000E+01  0.7277708100000000E+00
 -0.1650429070000000E+01
         # Potential name:  GTH-PADE-Q11  for symbol:  AU
         # Potential read from the potential filename: GTH_POTENTIALS
       &END POTENTIAL
     &END KIND
     &KIND C
       BASIS_SET SZV-MOLOPT-SR-GTH
       ELEMENT C
       POTENTIAL GTH-PADE-q4
       &POTENTIAL
 2 2
  0.3488304500000000E+00 2 -0.8513771100000000E+01  0.1228432030000000E+01
 2
  0.3045532100000000E+00 1  0.9522841789999999E+01
  0.2326773000000000E+00 0
         # Potential name:  GTH-PADE-Q4  for symbol:  C
         # Potential read from the potential filename: GTH_POTENTIALS
       &END POTENTIAL
     &END KIND
     &KIND S
       BASIS_SET SZV-MOLOPT-SR-GTH
       ELEMENT S
       POTENTIAL GTH-PADE-q6
       &POTENTIAL
 2 4
  0.4200000000000000E+00 1 -0.6554491840000000E+01
 2
  0.3617566500000000E+00 2  0.7905302500000000E+01 -0.1731881300000000E+01
  0.4471698300000000E+01
  0.4052850200000000E+00 1  0.3866579000000000E+01
         # Potential name:  GTH-PADE-Q6  for symbol:  S
         # Potential read from the potential filename: GTH_POTENTIALS
       &END POTENTIAL
     &END KIND
     &KIND H
       BASIS_SET SZV-MOLOPT-SR-GTH
       ELEMENT H
       POTENTIAL GTH-PADE-q1
       &POTENTIAL
 1
  0.2000000000000000E+00 2 -0.4180236800000000E+01  0.7250748200000000E+00
 0
         # Potential name:  GTH-PADE-Q1  for symbol:  H
         # Potential read from the potential filename: GTH_POTENTIALS
       &END POTENTIAL
     &END KIND
     &TOPOLOGY
       COORD_FILE_NAME em.xyz
       COORD_FILE_FORMAT  XYZ
       NUMBER_OF_ATOMS  116
       MULTIPLE_UNIT_CELL  1 1 1
     &END TOPOLOGY
   &END SUBSYS
 &END FORCE_EVAL
