 # Version information for this restart file 
 # current date 2023-02-21 22:06:47.236
 # current working dir /work4/scd/scarf1157/work/testing/cp2k-smeagol/bdt/cp2k/hollow-site/transport-cp2k/5-4/geometry-ordered/3x3-4/sz/bulk_layers-4/geo_opt/Au-S-2.7_dft
 # Program compiled at                              Thu 26 Jan 13:39:53 GMT 2023
 # Program compiled on                                     cn1108.scarf.rl.ac.uk
 # Program compiled for                                                    local
 # Source code revision number                                       git:1ef701d
 &GLOBAL
   EXTENDED_FFT_LENGTHS  T
   PRINT_LEVEL  MEDIUM
   PROJECT_NAME dft_wfn
   RUN_TYPE  GEO_OPT
 &END GLOBAL
 &MOTION
   &GEO_OPT
     OPTIMIZER  BFGS
     MAX_ITER  1000
     STEP_START_VAL  16
   &END GEO_OPT
   &CONSTRAINT
     &FIXED_ATOMS
       LIST  1..40 76..116
     &END FIXED_ATOMS
   &END CONSTRAINT
   &PRINT
     &TRAJECTORY  ON
       FORMAT  XMOL
     &END TRAJECTORY
   &END PRINT
 &END MOTION
 &FORCE_EVAL
   METHOD  QS
   &DFT
     BASIS_SET_FILE_NAME BASIS_MOLOPT
     POTENTIAL_FILE_NAME GTH_POTENTIALS
     &SCF
       MAX_SCF  100
       EPS_SCF     9.9999999999999995E-08
       SCF_GUESS  ATOMIC
       ADDED_MOS  100
       &SMEAR  T
         METHOD  FERMI_DIRAC
         ELECTRONIC_TEMPERATURE     2.9300000000000000E+02
       &END SMEAR
       &MIXING  T
         METHOD  BROYDEN_MIXING
         ALPHA     2.9999999999999999E-01
         NBUFFER  8
       &END MIXING
       &PRINT
         &RESTART  SILENT
           FILENAME RESTART_0
         &END RESTART
       &END PRINT
     &END SCF
     &MGRID
       CUTOFF     4.0000000000000000E+02
     &END MGRID
     &XC
       DENSITY_CUTOFF     1.0000000000000000E-10
       GRADIENT_CUTOFF     1.0000000000000000E-10
       TAU_CUTOFF     1.0000000000000000E-10
       &XC_FUNCTIONAL  NO_SHORTCUT
         &PADE  T
         &END PADE
       &END XC_FUNCTIONAL
     &END XC
     &POISSON
       PERIODIC  XYZ
     &END POISSON
     &KPOINTS
       SCHEME MONKHORST-PACK 2 2 1
       SYMMETRY  F
       FULL_GRID  T
       VERBOSE  T
       EPS_GEO     1.0000000000000000E-08
       PARALLEL_GROUP_SIZE  0
     &END KPOINTS
     &PRINT
       &E_DENSITY_CUBE  ON
         STRIDE  2 2 2
       &END E_DENSITY_CUBE
       &V_HARTREE_CUBE  SILENT
         STRIDE  2 2 2
       &END V_HARTREE_CUBE
       &HIRSHFELD  SILENT
         SHAPE_FUNCTION  DENSITY
       &END HIRSHFELD
     &END PRINT
   &END DFT
   &SUBSYS
     &CELL
       A     8.2919999999999998E+00    0.0000000000000000E+00    0.0000000000000000E+00
       B     0.0000000000000000E+00    8.2919999999999998E+00    0.0000000000000000E+00
       C     0.0000000000000000E+00    0.0000000000000000E+00    3.4683000000000007E+01
       PERIODIC  XYZ
       MULTIPLE_UNIT_CELL  1 1 1
     &END CELL
     &COORD
Au    0.0000000000000000E+00    0.0000000000000000E+00    0.0000000000000000E+00
Au    0.0000000000000000E+00    4.1459999999999999E+00    0.0000000000000000E+00
Au    2.0730000000000000E+00    2.0730000000000000E+00    0.0000000000000000E+00
Au    2.0730000000000000E+00    6.2190000000000012E+00    0.0000000000000000E+00
Au    4.1459999999999999E+00    0.0000000000000000E+00    0.0000000000000000E+00
Au    4.1459999999999999E+00    4.1459999999999999E+00    0.0000000000000000E+00
Au    6.2190000000000012E+00    2.0730000000000000E+00    0.0000000000000000E+00
Au    6.2190000000000012E+00    6.2190000000000012E+00    0.0000000000000000E+00
Au    0.0000000000000000E+00    2.0730000000000000E+00    2.0730000000000000E+00
Au    0.0000000000000000E+00    6.2190000000000012E+00    2.0730000000000000E+00
Au    2.0730000000000000E+00    0.0000000000000000E+00    2.0730000000000000E+00
Au    2.0730000000000000E+00    4.1459999999999999E+00    2.0730000000000000E+00
Au    4.1459999999999999E+00    2.0730000000000000E+00    2.0730000000000000E+00
Au    4.1459999999999999E+00    6.2190000000000012E+00    2.0730000000000000E+00
Au    6.2190000000000012E+00    0.0000000000000000E+00    2.0730000000000000E+00
Au    6.2190000000000012E+00    4.1459999999999999E+00    2.0730000000000000E+00
Au    0.0000000000000000E+00    0.0000000000000000E+00    4.1459999999999999E+00
Au    0.0000000000000000E+00    4.1459999999999999E+00    4.1459999999999999E+00
Au    2.0730000000000000E+00    2.0730000000000000E+00    4.1459999999999999E+00
Au    2.0730000000000000E+00    6.2190000000000012E+00    4.1459999999999999E+00
Au    4.1459999999999999E+00    0.0000000000000000E+00    4.1459999999999999E+00
Au    4.1459999999999999E+00    4.1459999999999999E+00    4.1459999999999999E+00
Au    6.2190000000000012E+00    2.0730000000000000E+00    4.1459999999999999E+00
Au    6.2190000000000012E+00    6.2190000000000012E+00    4.1459999999999999E+00
Au    0.0000000000000000E+00    2.0730000000000000E+00    6.2190000000000012E+00
Au    0.0000000000000000E+00    6.2190000000000012E+00    6.2190000000000012E+00
Au    2.0730000000000000E+00    0.0000000000000000E+00    6.2190000000000012E+00
Au    2.0730000000000000E+00    4.1459999999999999E+00    6.2190000000000012E+00
Au    4.1459999999999999E+00    2.0730000000000000E+00    6.2190000000000012E+00
Au    4.1459999999999999E+00    6.2190000000000012E+00    6.2190000000000012E+00
Au    6.2190000000000012E+00    0.0000000000000000E+00    6.2190000000000012E+00
Au    6.2190000000000012E+00    4.1459999999999999E+00    6.2190000000000012E+00
Au    0.0000000000000000E+00    0.0000000000000000E+00    8.2919999999999998E+00
Au    0.0000000000000000E+00    4.1459999999999999E+00    8.2919999999999998E+00
Au    2.0730000000000000E+00    2.0730000000000000E+00    8.2919999999999998E+00
Au    2.0730000000000000E+00    6.2190000000000012E+00    8.2919999999999998E+00
Au    4.1459999999999999E+00    0.0000000000000000E+00    8.2919999999999998E+00
Au    4.1459999999999999E+00    4.1459999999999999E+00    8.2919999999999998E+00
Au    6.2190000000000012E+00    2.0730000000000000E+00    8.2919999999999998E+00
Au    6.2190000000000012E+00    6.2190000000000012E+00    8.2919999999999998E+00
Au   -7.4249718048102192E-05    2.0736841815376708E+00    1.0408584142510072E+01
Au    1.4021129864085632E-04    6.2186716691618615E+00    1.0341678606983535E+01
Au    2.0891641776693781E+00    2.9853457755593109E-02    1.0393827922391317E+01
Au    2.0895874795066156E+00    4.1165164860222063E+00    1.0395116712427011E+01
Au    4.1458559464308111E+00    2.0736696851617982E+00    1.0415572231431330E+01
Au    4.1460627596280180E+00    6.2190009147793806E+00    1.0373021104340191E+01
Au    6.2030043252528539E+00    2.9626334284493055E-02    1.0393536810926513E+01
Au    6.2025810889658421E+00    4.1167412846011047E+00    1.0394821792955177E+01
Au   -3.6864852154765398E-04   -3.9724464396526209E-02    1.2475458080219001E+01
Au   -3.8244488869224909E-04    4.1864943628277960E+00    1.2476284605251758E+01
Au    1.9565686861091578E+00    2.0724688924430374E+00    1.2568576868238202E+01
Au    2.0189370612863575E+00    6.2202684160793300E+00    1.2460837010876068E+01
Au    4.1466419905482690E+00   -1.3470381453361635E-01    1.2510161370750078E+01
Au    4.1466558435619545E+00    4.2848714268918986E+00    1.2512693656820113E+01
Au    6.3340714285797590E+00    2.0724577306237664E+00    1.2568339459694249E+01
Au    6.2732625656680590E+00    6.2202796888615381E+00    1.2461605799475452E+01
S    4.1439682221614911E+00    2.0780843019992155E+00    1.4123707836886975E+01
C    4.1432200129031829E+00    2.0785385133441934E+00    1.5948917022676259E+01
H    1.9831267713740983E+00    2.0773225811160527E+00    1.6120414587201093E+01
H    6.3032913167980720E+00    2.0774371539729777E+00    1.6122150301986135E+01
C    2.9257594893643541E+00    2.0781821715532089E+00    1.6656221973867016E+01
C    5.3601720079037776E+00    2.0783319284687658E+00    1.6657102246765980E+01
C    2.9251440860440310E+00    2.0778520692708082E+00    1.8060248941554491E+01
C    5.3597774234824200E+00    2.0778732077400135E+00    1.8061128891900150E+01
H    1.9819446840254300E+00    2.0765961809528473E+00    1.8595029832948288E+01
H    6.3024228472384589E+00    2.0767492361898907E+00    1.8596822933109323E+01
C    4.1422181163414171E+00    2.0775401092930510E+00    1.8768157383817186E+01
S    4.1415621483941125E+00    2.0760947499203843E+00    2.0593402397580721E+01
Au   -1.3274871567818760E-02   -3.8647724641724890E-02    2.2217634100120875E+01
Au   -1.3410078779427554E-02    4.1839303892201842E+00    2.2218095035486378E+01
Au    1.9465900824854592E+00    2.0722852162856937E+00    2.2168985476912393E+01
Au    2.0153005785485232E+00    6.2191768119437310E+00    2.2211625632314679E+01
Au    4.1220772092417093E+00   -1.1362503159126097E-01    2.2204884747339872E+01
Au    4.1218602032547267E+00    4.2609530418624422E+00    2.2204321439887391E+01
Au    6.3245481039501614E+00    2.0721006199229848E+00    2.2172792974090161E+01
Au    6.2190000000000012E+00    6.2190000000000012E+00    2.2245000000000005E+01
Au    0.0000000000000000E+00    2.0730000000000000E+00    2.4318000000000001E+01
Au    0.0000000000000000E+00    6.2190000000000012E+00    2.4318000000000001E+01
Au    2.0730000000000000E+00    0.0000000000000000E+00    2.4318000000000001E+01
Au    2.0730000000000000E+00    4.1459999999999999E+00    2.4318000000000001E+01
Au    4.1459999999999999E+00    2.0730000000000000E+00    2.4318000000000001E+01
Au    4.1459999999999999E+00    6.2190000000000012E+00    2.4318000000000001E+01
Au    6.2190000000000012E+00    0.0000000000000000E+00    2.4318000000000001E+01
Au    6.2190000000000012E+00    4.1459999999999999E+00    2.4318000000000001E+01
Au    0.0000000000000000E+00    0.0000000000000000E+00    2.6391000000000002E+01
Au    0.0000000000000000E+00    4.1459999999999999E+00    2.6391000000000002E+01
Au    2.0730000000000000E+00    2.0730000000000000E+00    2.6391000000000002E+01
Au    2.0730000000000000E+00    6.2190000000000012E+00    2.6391000000000002E+01
Au    4.1459999999999999E+00    0.0000000000000000E+00    2.6391000000000002E+01
Au    4.1459999999999999E+00    4.1459999999999999E+00    2.6391000000000002E+01
Au    6.2190000000000012E+00    2.0730000000000000E+00    2.6391000000000002E+01
Au    6.2190000000000012E+00    6.2190000000000012E+00    2.6391000000000002E+01
Au    0.0000000000000000E+00    2.0730000000000000E+00    2.8464000000000002E+01
Au    0.0000000000000000E+00    6.2190000000000012E+00    2.8464000000000002E+01
Au    2.0730000000000000E+00    0.0000000000000000E+00    2.8464000000000002E+01
Au    2.0730000000000000E+00    4.1459999999999999E+00    2.8464000000000002E+01
Au    4.1459999999999999E+00    2.0730000000000000E+00    2.8464000000000002E+01
Au    4.1459999999999999E+00    6.2190000000000012E+00    2.8464000000000002E+01
Au    6.2190000000000012E+00    0.0000000000000000E+00    2.8464000000000002E+01
Au    6.2190000000000012E+00    4.1459999999999999E+00    2.8464000000000002E+01
Au    0.0000000000000000E+00    0.0000000000000000E+00    3.0536999999999999E+01
Au    0.0000000000000000E+00    4.1459999999999999E+00    3.0536999999999999E+01
Au    2.0730000000000000E+00    2.0730000000000000E+00    3.0536999999999999E+01
Au    2.0730000000000000E+00    6.2190000000000012E+00    3.0536999999999999E+01
Au    4.1459999999999999E+00    0.0000000000000000E+00    3.0536999999999999E+01
Au    4.1459999999999999E+00    4.1459999999999999E+00    3.0536999999999999E+01
Au    6.2190000000000012E+00    2.0730000000000000E+00    3.0536999999999999E+01
Au    6.2190000000000012E+00    6.2190000000000012E+00    3.0536999999999999E+01
Au    0.0000000000000000E+00    2.0730000000000000E+00    3.2609999999999999E+01
Au    0.0000000000000000E+00    6.2190000000000012E+00    3.2609999999999999E+01
Au    2.0730000000000000E+00    0.0000000000000000E+00    3.2609999999999999E+01
Au    2.0730000000000000E+00    4.1459999999999999E+00    3.2609999999999999E+01
Au    4.1459999999999999E+00    2.0730000000000000E+00    3.2609999999999999E+01
Au    4.1459999999999999E+00    6.2190000000000012E+00    3.2609999999999999E+01
Au    6.2190000000000012E+00    0.0000000000000000E+00    3.2609999999999999E+01
Au    6.2190000000000012E+00    4.1459999999999999E+00    3.2609999999999999E+01
     &END COORD
     &KIND Au
       BASIS_SET SZV-MOLOPT-SR-GTH
       POTENTIAL GTH-PADE-q11
       &POTENTIAL
 1 0 10
  0.5900000000000000E+00 1  0.1160442790000000E+02
 3
  0.5211797500000001E+00 2  0.2538613590000000E+01 -0.1046136640000000E+01
  0.2701113200000000E+01
  0.6306130599999999E+00 2  0.3948527000000000E+00 -0.8695921300000000E+00
  0.2057830560000000E+01
  0.4407064300000000E+00 2 -0.4719069660000000E+01  0.7277708100000000E+00
 -0.1650429070000000E+01
         # Potential name:  GTH-PADE-Q11  for symbol:  AU
         # Potential read from the potential filename: GTH_POTENTIALS
       &END POTENTIAL
     &END KIND
     &KIND C
       BASIS_SET SZV-MOLOPT-SR-GTH
       ELEMENT C
       POTENTIAL GTH-PADE-q4
       &POTENTIAL
 2 2
  0.3488304500000000E+00 2 -0.8513771100000000E+01  0.1228432030000000E+01
 2
  0.3045532100000000E+00 1  0.9522841789999999E+01
  0.2326773000000000E+00 0
         # Potential name:  GTH-PADE-Q4  for symbol:  C
         # Potential read from the potential filename: GTH_POTENTIALS
       &END POTENTIAL
     &END KIND
     &KIND S
       BASIS_SET SZV-MOLOPT-SR-GTH
       ELEMENT S
       POTENTIAL GTH-PADE-q6
       &POTENTIAL
 2 4
  0.4200000000000000E+00 1 -0.6554491840000000E+01
 2
  0.3617566500000000E+00 2  0.7905302500000000E+01 -0.1731881300000000E+01
  0.4471698300000000E+01
  0.4052850200000000E+00 1  0.3866579000000000E+01
         # Potential name:  GTH-PADE-Q6  for symbol:  S
         # Potential read from the potential filename: GTH_POTENTIALS
       &END POTENTIAL
     &END KIND
     &KIND H
       BASIS_SET SZV-MOLOPT-SR-GTH
       ELEMENT H
       POTENTIAL GTH-PADE-q1
       &POTENTIAL
 1
  0.2000000000000000E+00 2 -0.4180236800000000E+01  0.7250748200000000E+00
 0
         # Potential name:  GTH-PADE-Q1  for symbol:  H
         # Potential read from the potential filename: GTH_POTENTIALS
       &END POTENTIAL
     &END KIND
     &TOPOLOGY
       COORD_FILE_NAME em.xyz
       COORD_FILE_FORMAT  XYZ
       NUMBER_OF_ATOMS  116
       MULTIPLE_UNIT_CELL  1 1 1
     &END TOPOLOGY
   &END SUBSYS
 &END FORCE_EVAL
