SystemName                   IV          # Descriptive name of the system
SystemLabel                     IV               # Short name for naming files
NumberOfAtoms    178
NumberOfSpecies                 7               # Number of species
PAO.BasisType                   split
%block ChemicalSpeciesLabel
1 79 Au_bulk
2 7 N
3 6  C
4 1  H
5 79 Au
6 79 Au_surf
7 79 Au_tip
%endblock ChemicalSpeciesLabel
%block PAO.BasisSizes
C DZP
H DZP
N DZP
Au_surf DZP
Au_tip DZP
%endblock PAO.BasisSizes
%block PAO.Basis
  Au_bulk  2
n=6  0  1
6.500
1.00
n=5  2  1
5.850
1.00
  Au  2
n=6  0  1
6.500
1.00
n=5  2  1
5.850
1.00
%endblock PAO.Basis
LatticeConstant 1.000 Ang
%block LatticeVectors
   14.582     0.000   0.000        1
  0.000    8.866     0.000   1
  0.000   0.000    35.532  1
%endblock LatticeVectors
AtomicCoordinatesFormat Ang
%block AtomicCoordinatesAndAtomicSpecies
0.0 0.0 0.0 1 Au_bulk
0.0 2.955 0.0 1 Au_bulk
0.0 5.911 0.0 1 Au_bulk
2.956 0.0 0.0 1 Au_bulk
2.956 2.955 0.0 1 Au_bulk
2.956 5.911 0.0 1 Au_bulk
5.912 0.0 0.0 1 Au_bulk
5.912 2.955 0.0 1 Au_bulk
5.912 5.911 0.0 1 Au_bulk
8.67 0.0 0.0 1 Au_bulk
8.67 2.955 0.0 1 Au_bulk
8.67 5.911 0.0 1 Au_bulk
11.626 0.0 0.0 1 Au_bulk
11.626 2.955 0.0 1 Au_bulk
11.626 5.911 0.0 1 Au_bulk
1.478 1.478 2.09 1 Au_bulk
1.478 4.433 2.09 1 Au_bulk
1.478 7.389 2.09 1 Au_bulk
4.434 1.478 2.09 1 Au_bulk
4.434 4.433 2.09 1 Au_bulk
4.434 7.389 2.09 1 Au_bulk
7.192 1.478 2.09 1 Au_bulk
7.192 4.433 2.09 1 Au_bulk
7.192 7.389 2.09 1 Au_bulk
10.148 1.478 2.09 1 Au_bulk
10.148 4.433 2.09 1 Au_bulk
10.148 7.389 2.09 1 Au_bulk
13.104 1.478 2.09 1 Au_bulk
13.104 4.433 2.09 1 Au_bulk
13.104 7.389 2.09 1 Au_bulk
0.0 0.0 4.18 1 Au_bulk
0.0 2.955 4.18 1 Au_bulk
0.0 5.911 4.18 1 Au_bulk
2.956 0.0 4.18 1 Au_bulk
2.956 2.955 4.18 1 Au_bulk
2.956 5.911 4.18 1 Au_bulk
5.912 0.0 4.18 1 Au_bulk
5.912 2.955 4.18 1 Au_bulk
5.912 5.911 4.18 1 Au_bulk
8.67 0.0 4.18 1 Au_bulk
8.67 2.955 4.18 1 Au_bulk
8.67 5.911 4.18 1 Au_bulk
11.626 0.0 4.18 1 Au_bulk
11.626 2.955 4.18 1 Au_bulk
11.626 5.911 4.18 1 Au_bulk
1.478 1.478 6.27 1 Au_bulk
1.478 4.433 6.27 1 Au_bulk
1.478 7.389 6.27 1 Au_bulk
4.434 1.478 6.27 1 Au_bulk
4.434 4.433 6.27 1 Au_bulk
4.434 7.389 6.27 1 Au_bulk
7.192 1.478 6.27 1 Au_bulk
7.192 4.433 6.27 1 Au_bulk
7.192 7.389 6.27 1 Au_bulk
10.148 1.478 6.27 1 Au_bulk
10.148 4.433 6.27 1 Au_bulk
10.148 7.389 6.27 1 Au_bulk
13.104 1.478 6.27 1 Au_bulk
13.104 4.433 6.27 1 Au_bulk
13.104 7.389 6.27 1 Au_bulk
0.0 0.0 8.36 5 Au
0.0 2.955 8.36 5 Au
0.0 5.911 8.36 5 Au
2.956 0.0 8.36 5 Au
2.956 2.955 8.36 5 Au
2.956 5.911 8.36 5 Au
5.912 0.0 8.36 5 Au
5.912 2.955 8.36 5 Au
5.912 5.911 8.36 5 Au
8.67 0.0 8.36 5 Au
8.67 2.955 8.36 5 Au
8.67 5.911 8.36 5 Au
11.626 0.0 8.36 5 Au
11.626 2.955 8.36 5 Au
11.626 5.911 8.36 5 Au
1.478 1.478 10.45 6 Au_surf
1.478 4.433 10.45 6 Au_surf
1.478 7.389 10.45 6 Au_surf
4.434 1.478 10.45 6 Au_surf
4.434 4.433 10.45 6 Au_surf
4.434 7.389 10.45 6 Au_surf
7.192 1.478 10.45 6 Au_surf
7.192 4.433 10.45 6 Au_surf
7.192 7.389 10.45 6 Au_surf
10.148 1.478 10.45 6 Au_surf
10.148 4.433 10.45 6 Au_surf
10.148 7.389 10.45 6 Au_surf
13.104 1.478 10.45 6 Au_surf
13.104 4.433 10.45 6 Au_surf
13.104 7.389 10.45 6 Au_surf
4.8554 5.9119 12.0318 2 N
9.528 5.9137 12.034 2 N
7.192 5.934 12.04 2 N
10.3189 5.9088 12.6857 4 H
4.0673 5.906 12.6877 4 H
8.3739 5.918 12.7315 3 C
5.999 5.9153 12.7926 3 C
8.3228 5.9052 14.0805 2 N
5.9344 5.8982 14.1017 2 N
9.1744 5.8876 14.641 4 H
7.104 5.8899 14.8287 3 C
7.2416 5.8658 16.1065 2 N
6.3118 5.8548 16.5396 4 H
1.478 1.478 23.082 5 Au
1.478 4.433 23.082 5 Au
1.478 7.389 23.082 5 Au
4.434 1.478 23.082 5 Au
4.434 4.433 23.082 5 Au
4.434 7.389 23.082 5 Au
7.192 1.478 23.082 5 Au
7.192 4.433 23.082 5 Au
7.192 7.389 23.082 5 Au
10.148 1.478 23.082 5 Au
10.148 4.433 23.082 5 Au
10.148 7.389 23.082 5 Au
13.104 1.478 23.082 5 Au
13.104 4.433 23.082 5 Au
13.104 7.389 23.082 5 Au
0.0 0.0 25.172 1 Au_bulk
0.0 2.955 25.172 1 Au_bulk
0.0 5.911 25.172 1 Au_bulk
2.956 0.0 25.172 1 Au_bulk
2.956 2.955 25.172 1 Au_bulk
2.956 5.911 25.172 1 Au_bulk
5.912 0.0 25.172 1 Au_bulk
5.912 2.955 25.172 1 Au_bulk
5.912 5.911 25.172 1 Au_bulk
8.67 0.0 25.172 1 Au_bulk
8.67 2.955 25.172 1 Au_bulk
8.67 5.911 25.172 1 Au_bulk
11.626 0.0 25.172 1 Au_bulk
11.626 2.955 25.172 1 Au_bulk
11.626 5.911 25.172 1 Au_bulk
1.478 1.478 27.262 1 Au_bulk
1.478 4.433 27.262 1 Au_bulk
1.478 7.389 27.262 1 Au_bulk
4.434 1.478 27.262 1 Au_bulk
4.434 4.433 27.262 1 Au_bulk
4.434 7.389 27.262 1 Au_bulk
7.192 1.478 27.262 1 Au_bulk
7.192 4.433 27.262 1 Au_bulk
7.192 7.389 27.262 1 Au_bulk
10.148 1.478 27.262 1 Au_bulk
10.148 4.433 27.262 1 Au_bulk
10.148 7.389 27.262 1 Au_bulk
13.104 1.478 27.262 1 Au_bulk
13.104 4.433 27.262 1 Au_bulk
13.104 7.389 27.262 1 Au_bulk
0.0 0.0 29.352 1 Au_bulk
0.0 2.955 29.352 1 Au_bulk
0.0 5.911 29.352 1 Au_bulk
2.956 0.0 29.352 1 Au_bulk
2.956 2.955 29.352 1 Au_bulk
2.956 5.911 29.352 1 Au_bulk
5.912 0.0 29.352 1 Au_bulk
5.912 2.955 29.352 1 Au_bulk
5.912 5.911 29.352 1 Au_bulk
8.67 0.0 29.352 1 Au_bulk
8.67 2.955 29.352 1 Au_bulk
8.67 5.911 29.352 1 Au_bulk
11.626 0.0 29.352 1 Au_bulk
11.626 2.955 29.352 1 Au_bulk
11.626 5.911 29.352 1 Au_bulk
1.478 1.478 31.442 1 Au_bulk
1.478 4.433 31.442 1 Au_bulk
1.478 7.389 31.442 1 Au_bulk
4.434 1.478 31.442 1 Au_bulk
4.434 4.433 31.442 1 Au_bulk
4.434 7.389 31.442 1 Au_bulk
7.192 1.478 31.442 1 Au_bulk
7.192 4.433 31.442 1 Au_bulk
7.192 7.389 31.442 1 Au_bulk
10.148 1.478 31.442 1 Au_bulk
10.148 4.433 31.442 1 Au_bulk
10.148 7.389 31.442 1 Au_bulk
13.104 1.478 31.442 1 Au_bulk
13.104 4.433 31.442 1 Au_bulk
13.104 7.389 31.442 1 Au_bulk
%endblock AtomicCoordinatesAndAtomicSpecies 	
%block kgrid_Monkhorst_Pack
  2   0   0     0.0
  0   4   0     0.0
  0   0   1     0.0
%endblock kgrid_Monkhorst_Pack
xc.functional		LDA		# 'LDA', 'GGA'
xc.authors 	 		CA		# 'CA'='PZ', 'PW92', 'PBE'
SpinPolarized			F		# 'T', 'F'		
#FixSpin           F
#TotalSpin        0.0
NonCollinearSpin		F		# 'T', 'F'
MeshCutoff 	 		    200 Ry		# Equivalent plane wave cutoff for the grid
MaxSCFIterations		500
DM.MixingWeight			0.1
DM.NumberPulay			4	# Pulay convergency accelerator
DM.MixSCF1			    T
MixHamiltonian      T
DM.PulayOnFile			F		# Store in memory ('F') or in files ('T')
#DM.NumberKick         30
#DM.KickMixingWeight   0.1
DM.Tolerance 		1.0E-4
NeglNonOverlapInt		F		# 'F'=do not neglect
SolutionMethod			diagon
ElectronicTemperature		300 K		# Default value
DM.UseSaveDM 			T
#MD.UseSaveXV			T
#MD.UseSaveCG			T
WriteForces      T
WriteCoorXmol			T		# Write Atoms coordinates
SaveElectrostaticPotential      T
#SaveHS				T		# Save the Hamiltonian and Overlap matrices
SaveRho				T		# Save the valence pseudocharge density
#SaveDeltaRho			T
#WriteDenchar			T		# Write Denchar output
WriteMullikenPop		0 #write mulliken population of aromic and orbital charges
#-----
#smeagol
#-----
# Perform a transport calculation
EMTransport              T
# Set number of energy points for integrals
NEnergReal               64
# Set bias range
VInitial             -1 eV
VFinal                1 eV
NIVPoints                4
# General variables
Delta                    1e-4
EnergLowestBound    -100.0 eV
# Print transmission coefficient
TrCoefficients           F
InitTransmRange      -10.0 eV
FinalTransmRange      10.0 eV
NTransmPoints            800
TRC.EMDOS                T
TRC.LeadsDOS             T
# Matching of Hartree potential with the leads
HartreeLeadsBottom  -15.36721897 eV
%block SaveBiasSteps
 0 1 2 3
%endblock SaveBiasSteps
