 # Version information for this restart file 
 # current date 2023-02-22 11:29:23.483
 # current working dir /work4/scd/scarf1157/work/testing/cp2k-smeagol/bdt/cp2k/hollow-site/transport-cp2k/5-4/geometry-ordered/3x3-4/sz/bulk_layers-4/geo_opt/dzvp/Au-S-2.55_dft_cg
 # Program compiled at                              Thu 26 Jan 13:39:53 GMT 2023
 # Program compiled on                                     cn1108.scarf.rl.ac.uk
 # Program compiled for                                                    local
 # Source code revision number                                       git:1ef701d
 &GLOBAL
   EXTENDED_FFT_LENGTHS  T
   PRINT_LEVEL  MEDIUM
   PROJECT_NAME dft_wfn
   RUN_TYPE  GEO_OPT
 &END GLOBAL
 &MOTION
   &GEO_OPT
     OPTIMIZER  CG
     MAX_ITER  1000
     STEP_START_VAL  4
   &END GEO_OPT
   &CONSTRAINT
     &FIXED_ATOMS
       LIST  1..40 76..116
     &END FIXED_ATOMS
   &END CONSTRAINT
   &PRINT
     &TRAJECTORY  ON
       FORMAT  XMOL
     &END TRAJECTORY
   &END PRINT
 &END MOTION
 &FORCE_EVAL
   METHOD  QS
   &DFT
     BASIS_SET_FILE_NAME BASIS_MOLOPT
     POTENTIAL_FILE_NAME GTH_POTENTIALS
     &SCF
       MAX_SCF  100
       EPS_SCF     9.9999999999999995E-08
       SCF_GUESS  ATOMIC
       ADDED_MOS  100
       &SMEAR  T
         METHOD  FERMI_DIRAC
         ELECTRONIC_TEMPERATURE     2.9300000000000000E+02
       &END SMEAR
       &MIXING  T
         METHOD  BROYDEN_MIXING
         ALPHA     2.9999999999999999E-01
         NBUFFER  8
       &END MIXING
       &PRINT
         &RESTART  SILENT
           FILENAME RESTART_0
         &END RESTART
       &END PRINT
     &END SCF
     &MGRID
       CUTOFF     4.0000000000000000E+02
     &END MGRID
     &XC
       DENSITY_CUTOFF     1.0000000000000000E-10
       GRADIENT_CUTOFF     1.0000000000000000E-10
       TAU_CUTOFF     1.0000000000000000E-10
       &XC_FUNCTIONAL  NO_SHORTCUT
         &PADE  T
         &END PADE
       &END XC_FUNCTIONAL
     &END XC
     &POISSON
       PERIODIC  XYZ
     &END POISSON
     &KPOINTS
       SCHEME MONKHORST-PACK 2 2 1
       SYMMETRY  F
       FULL_GRID  T
       VERBOSE  T
       EPS_GEO     1.0000000000000000E-08
       PARALLEL_GROUP_SIZE  0
     &END KPOINTS
     &PRINT
       &E_DENSITY_CUBE  ON
         STRIDE  2 2 2
       &END E_DENSITY_CUBE
       &V_HARTREE_CUBE  SILENT
         STRIDE  2 2 2
       &END V_HARTREE_CUBE
       &HIRSHFELD  SILENT
         SHAPE_FUNCTION  DENSITY
       &END HIRSHFELD
     &END PRINT
   &END DFT
   &SUBSYS
     &CELL
       A     8.2919999999999998E+00    0.0000000000000000E+00    0.0000000000000000E+00
       B     0.0000000000000000E+00    8.2919999999999998E+00    0.0000000000000000E+00
       C     0.0000000000000000E+00    0.0000000000000000E+00    3.4192999999999998E+01
       PERIODIC  XYZ
       MULTIPLE_UNIT_CELL  1 1 1
     &END CELL
     &COORD
Au    0.0000000000000000E+00    0.0000000000000000E+00    0.0000000000000000E+00
Au    0.0000000000000000E+00    4.1459999999999999E+00    0.0000000000000000E+00
Au    2.0730000000000000E+00    2.0730000000000000E+00    0.0000000000000000E+00
Au    2.0730000000000000E+00    6.2190000000000012E+00    0.0000000000000000E+00
Au    4.1459999999999999E+00    0.0000000000000000E+00    0.0000000000000000E+00
Au    4.1459999999999999E+00    4.1459999999999999E+00    0.0000000000000000E+00
Au    6.2190000000000012E+00    2.0730000000000000E+00    0.0000000000000000E+00
Au    6.2190000000000012E+00    6.2190000000000012E+00    0.0000000000000000E+00
Au    0.0000000000000000E+00    2.0730000000000000E+00    2.0730000000000000E+00
Au    0.0000000000000000E+00    6.2190000000000012E+00    2.0730000000000000E+00
Au    2.0730000000000000E+00    0.0000000000000000E+00    2.0730000000000000E+00
Au    2.0730000000000000E+00    4.1459999999999999E+00    2.0730000000000000E+00
Au    4.1459999999999999E+00    2.0730000000000000E+00    2.0730000000000000E+00
Au    4.1459999999999999E+00    6.2190000000000012E+00    2.0730000000000000E+00
Au    6.2190000000000012E+00    0.0000000000000000E+00    2.0730000000000000E+00
Au    6.2190000000000012E+00    4.1459999999999999E+00    2.0730000000000000E+00
Au    0.0000000000000000E+00    0.0000000000000000E+00    4.1459999999999999E+00
Au    0.0000000000000000E+00    4.1459999999999999E+00    4.1459999999999999E+00
Au    2.0730000000000000E+00    2.0730000000000000E+00    4.1459999999999999E+00
Au    2.0730000000000000E+00    6.2190000000000012E+00    4.1459999999999999E+00
Au    4.1459999999999999E+00    0.0000000000000000E+00    4.1459999999999999E+00
Au    4.1459999999999999E+00    4.1459999999999999E+00    4.1459999999999999E+00
Au    6.2190000000000012E+00    2.0730000000000000E+00    4.1459999999999999E+00
Au    6.2190000000000012E+00    6.2190000000000012E+00    4.1459999999999999E+00
Au    0.0000000000000000E+00    2.0730000000000000E+00    6.2190000000000012E+00
Au    0.0000000000000000E+00    6.2190000000000012E+00    6.2190000000000012E+00
Au    2.0730000000000000E+00    0.0000000000000000E+00    6.2190000000000012E+00
Au    2.0730000000000000E+00    4.1459999999999999E+00    6.2190000000000012E+00
Au    4.1459999999999999E+00    2.0730000000000000E+00    6.2190000000000012E+00
Au    4.1459999999999999E+00    6.2190000000000012E+00    6.2190000000000012E+00
Au    6.2190000000000012E+00    0.0000000000000000E+00    6.2190000000000012E+00
Au    6.2190000000000012E+00    4.1459999999999999E+00    6.2190000000000012E+00
Au    0.0000000000000000E+00    0.0000000000000000E+00    8.2919999999999998E+00
Au    0.0000000000000000E+00    4.1459999999999999E+00    8.2919999999999998E+00
Au    2.0730000000000000E+00    2.0730000000000000E+00    8.2919999999999998E+00
Au    2.0730000000000000E+00    6.2190000000000012E+00    8.2919999999999998E+00
Au    4.1459999999999999E+00    0.0000000000000000E+00    8.2919999999999998E+00
Au    4.1459999999999999E+00    4.1459999999999999E+00    8.2919999999999998E+00
Au    6.2190000000000012E+00    2.0730000000000000E+00    8.2919999999999998E+00
Au    6.2190000000000012E+00    6.2190000000000012E+00    8.2919999999999998E+00
Au    3.1922508415676404E-05    2.0730156184670685E+00    1.0375462164717252E+01
Au   -3.3354870967723283E-06    6.2189538360267758E+00    1.0358719468063214E+01
Au    2.0735152908807954E+00    2.4472683868210963E-03    1.0356817708557752E+01
Au    2.0735139629754706E+00    4.1436416197765311E+00    1.0356703481312291E+01
Au    4.1460241680871377E+00    2.0728729539880995E+00    1.0321450452894876E+01
Au    4.1459847994179295E+00    6.2186409020309963E+00    1.0371476359591616E+01
Au    6.2184743299759013E+00    2.4549900152409810E-03    1.0356838032423260E+01
Au    6.2184766739025967E+00    4.1436344792487878E+00    1.0356722613697338E+01
Au    1.8319288268958924E-05   -1.7231930271318165E-02    1.2443471727638546E+01
Au    1.9329428576496629E-05    4.1633673450447253E+00    1.2443586885222288E+01
Au    1.9783015630044791E+00    2.0729745519021927E+00    1.2449121733461345E+01
Au    2.0539722799626139E+00    6.2190147442208135E+00    1.2442793581121769E+01
Au    4.1459850215286060E+00   -9.9938813517845074E-02    1.2436248553860336E+01
Au    4.1459861033755541E+00    4.2451133784808821E+00    1.2437003632768743E+01
Au    6.3138439369149442E+00    2.0729756731092595E+00    1.2449027101407225E+01
Au    6.2380100416863522E+00    6.2190157175806204E+00    1.2442793277107327E+01
S    4.1458930013449784E+00    2.0775804875574471E+00    1.3963486291498018E+01
C    4.1438235881117080E+00    2.0847666092929957E+00    1.5727689843198576E+01
H    1.9928288666162632E+00    2.0961341566821878E+00    1.5844901066838256E+01
H    6.2933003124460063E+00    2.0960297047141392E+00    1.5855254175564498E+01
C    2.9247970421132785E+00    2.0800779778006637E+00    1.6405168829129405E+01
C    5.3621659873128138E+00    2.0801872617971733E+00    1.6406472427095572E+01
C    2.9193155752104194E+00    2.0639751604863954E+00    1.7786228221605107E+01
C    5.3568746274829593E+00    2.0640605839242867E+00    1.7787565491045985E+01
H    1.9885430742937567E+00    2.0480159590798199E+00    1.8337435190338432E+01
H    6.2885598207169959E+00    2.0478866041446260E+00    1.8347852801914456E+01
C    4.1378016057057962E+00    2.0597272839130816E+00    1.8464152286754853E+01
S    4.1414129101154886E+00    2.0680431010620790E+00    2.0227488889951623E+01
Au   -3.2083569224298299E-04   -1.5724920940469490E-02    2.1749159538333668E+01
Au   -3.2233641061344526E-04    4.1615631481627560E+00    2.1749282845249724E+01
Au    1.9743876627426862E+00    2.0730959712834909E+00    2.1741662027690943E+01
Au    2.0555264201271908E+00    6.2189512052238278E+00    2.1749517486080759E+01
Au    4.1457606518042054E+00   -1.0256128101818733E-01    2.1753619480007380E+01
Au    4.1457620519290268E+00    4.2494091946666410E+00    2.1754460228061273E+01
Au    6.3181563942536059E+00    2.0730974811254321E+00    2.1742467921200902E+01
Au    6.2190000000000012E+00    6.2190000000000012E+00    2.1755000000000003E+01
Au    0.0000000000000000E+00    2.0730000000000000E+00    2.3827999999999999E+01
Au    0.0000000000000000E+00    6.2190000000000012E+00    2.3827999999999999E+01
Au    2.0730000000000000E+00    0.0000000000000000E+00    2.3827999999999999E+01
Au    2.0730000000000000E+00    4.1459999999999999E+00    2.3827999999999999E+01
Au    4.1459999999999999E+00    2.0730000000000000E+00    2.3827999999999999E+01
Au    4.1459999999999999E+00    6.2190000000000012E+00    2.3827999999999999E+01
Au    6.2190000000000012E+00    0.0000000000000000E+00    2.3827999999999999E+01
Au    6.2190000000000012E+00    4.1459999999999999E+00    2.3827999999999999E+01
Au    0.0000000000000000E+00    0.0000000000000000E+00    2.5901000000000000E+01
Au    0.0000000000000000E+00    4.1459999999999999E+00    2.5901000000000000E+01
Au    2.0730000000000000E+00    2.0730000000000000E+00    2.5901000000000000E+01
Au    2.0730000000000000E+00    6.2190000000000012E+00    2.5901000000000000E+01
Au    4.1459999999999999E+00    0.0000000000000000E+00    2.5901000000000000E+01
Au    4.1459999999999999E+00    4.1459999999999999E+00    2.5901000000000000E+01
Au    6.2190000000000012E+00    2.0730000000000000E+00    2.5901000000000000E+01
Au    6.2190000000000012E+00    6.2190000000000012E+00    2.5901000000000000E+01
Au    0.0000000000000000E+00    2.0730000000000000E+00    2.7974000000000004E+01
Au    0.0000000000000000E+00    6.2190000000000012E+00    2.7974000000000004E+01
Au    2.0730000000000000E+00    0.0000000000000000E+00    2.7974000000000004E+01
Au    2.0730000000000000E+00    4.1459999999999999E+00    2.7974000000000004E+01
Au    4.1459999999999999E+00    2.0730000000000000E+00    2.7974000000000004E+01
Au    4.1459999999999999E+00    6.2190000000000012E+00    2.7974000000000004E+01
Au    6.2190000000000012E+00    0.0000000000000000E+00    2.7974000000000004E+01
Au    6.2190000000000012E+00    4.1459999999999999E+00    2.7974000000000004E+01
Au    0.0000000000000000E+00    0.0000000000000000E+00    3.0047000000000001E+01
Au    0.0000000000000000E+00    4.1459999999999999E+00    3.0047000000000001E+01
Au    2.0730000000000000E+00    2.0730000000000000E+00    3.0047000000000001E+01
Au    2.0730000000000000E+00    6.2190000000000012E+00    3.0047000000000001E+01
Au    4.1459999999999999E+00    0.0000000000000000E+00    3.0047000000000001E+01
Au    4.1459999999999999E+00    4.1459999999999999E+00    3.0047000000000001E+01
Au    6.2190000000000012E+00    2.0730000000000000E+00    3.0047000000000001E+01
Au    6.2190000000000012E+00    6.2190000000000012E+00    3.0047000000000001E+01
Au    0.0000000000000000E+00    2.0730000000000000E+00    3.2119999999999997E+01
Au    0.0000000000000000E+00    6.2190000000000012E+00    3.2119999999999997E+01
Au    2.0730000000000000E+00    0.0000000000000000E+00    3.2119999999999997E+01
Au    2.0730000000000000E+00    4.1459999999999999E+00    3.2119999999999997E+01
Au    4.1459999999999999E+00    2.0730000000000000E+00    3.2119999999999997E+01
Au    4.1459999999999999E+00    6.2190000000000012E+00    3.2119999999999997E+01
Au    6.2190000000000012E+00    0.0000000000000000E+00    3.2119999999999997E+01
Au    6.2190000000000012E+00    4.1459999999999999E+00    3.2119999999999997E+01
     &END COORD
     &KIND Au
       BASIS_SET SZV-MOLOPT-SR-GTH
       POTENTIAL GTH-PADE-q11
       &POTENTIAL
 1 0 10
  0.5900000000000000E+00 1  0.1160442790000000E+02
 3
  0.5211797500000001E+00 2  0.2538613590000000E+01 -0.1046136640000000E+01
  0.2701113200000000E+01
  0.6306130599999999E+00 2  0.3948527000000000E+00 -0.8695921300000000E+00
  0.2057830560000000E+01
  0.4407064300000000E+00 2 -0.4719069660000000E+01  0.7277708100000000E+00
 -0.1650429070000000E+01
         # Potential name:  GTH-PADE-Q11  for symbol:  AU
         # Potential read from the potential filename: GTH_POTENTIALS
       &END POTENTIAL
     &END KIND
     &KIND C
       BASIS_SET DZVP-MOLOPT-SR-GTH
       ELEMENT C
       POTENTIAL GTH-PADE-q4
       &POTENTIAL
 2 2
  0.3488304500000000E+00 2 -0.8513771100000000E+01  0.1228432030000000E+01
 2
  0.3045532100000000E+00 1  0.9522841789999999E+01
  0.2326773000000000E+00 0
         # Potential name:  GTH-PADE-Q4  for symbol:  C
         # Potential read from the potential filename: GTH_POTENTIALS
       &END POTENTIAL
     &END KIND
     &KIND S
       BASIS_SET DZVP-MOLOPT-SR-GTH
       ELEMENT S
       POTENTIAL GTH-PADE-q6
       &POTENTIAL
 2 4
  0.4200000000000000E+00 1 -0.6554491840000000E+01
 2
  0.3617566500000000E+00 2  0.7905302500000000E+01 -0.1731881300000000E+01
  0.4471698300000000E+01
  0.4052850200000000E+00 1  0.3866579000000000E+01
         # Potential name:  GTH-PADE-Q6  for symbol:  S
         # Potential read from the potential filename: GTH_POTENTIALS
       &END POTENTIAL
     &END KIND
     &KIND H
       BASIS_SET DZVP-MOLOPT-SR-GTH
       ELEMENT H
       POTENTIAL GTH-PADE-q1
       &POTENTIAL
 1
  0.2000000000000000E+00 2 -0.4180236800000000E+01  0.7250748200000000E+00
 0
         # Potential name:  GTH-PADE-Q1  for symbol:  H
         # Potential read from the potential filename: GTH_POTENTIALS
       &END POTENTIAL
     &END KIND
     &TOPOLOGY
       COORD_FILE_NAME em.xyz
       COORD_FILE_FORMAT  XYZ
       NUMBER_OF_ATOMS  116
       MULTIPLE_UNIT_CELL  1 1 1
     &END TOPOLOGY
   &END SUBSYS
 &END FORCE_EVAL
