 # Version information for this restart file 
 # current date 2023-02-21 21:58:15.812
 # current working dir /work4/scd/scarf1157/work/testing/cp2k-smeagol/bdt/cp2k/hollow-site/transport-cp2k/5-4/geometry-ordered/3x3-4/sz/bulk_layers-4/geo_opt/Au-S-2.5_dft
 # Program compiled at                              Thu 26 Jan 13:39:53 GMT 2023
 # Program compiled on                                     cn1108.scarf.rl.ac.uk
 # Program compiled for                                                    local
 # Source code revision number                                       git:1ef701d
 &GLOBAL
   EXTENDED_FFT_LENGTHS  T
   PRINT_LEVEL  MEDIUM
   PROJECT_NAME dft_wfn
   RUN_TYPE  GEO_OPT
 &END GLOBAL
 &MOTION
   &GEO_OPT
     OPTIMIZER  BFGS
     MAX_ITER  1000
     STEP_START_VAL  11
   &END GEO_OPT
   &CONSTRAINT
     &FIXED_ATOMS
       LIST  1..40 76..116
     &END FIXED_ATOMS
   &END CONSTRAINT
   &PRINT
     &TRAJECTORY  ON
       FORMAT  XMOL
     &END TRAJECTORY
   &END PRINT
 &END MOTION
 &FORCE_EVAL
   METHOD  QS
   &DFT
     BASIS_SET_FILE_NAME BASIS_MOLOPT
     POTENTIAL_FILE_NAME GTH_POTENTIALS
     &SCF
       MAX_SCF  100
       EPS_SCF     9.9999999999999995E-08
       SCF_GUESS  ATOMIC
       ADDED_MOS  100
       &SMEAR  T
         METHOD  FERMI_DIRAC
         ELECTRONIC_TEMPERATURE     2.9300000000000000E+02
       &END SMEAR
       &MIXING  T
         METHOD  BROYDEN_MIXING
         ALPHA     2.9999999999999999E-01
         NBUFFER  8
       &END MIXING
       &PRINT
         &RESTART  SILENT
           FILENAME RESTART_0
         &END RESTART
       &END PRINT
     &END SCF
     &MGRID
       CUTOFF     4.0000000000000000E+02
     &END MGRID
     &XC
       DENSITY_CUTOFF     1.0000000000000000E-10
       GRADIENT_CUTOFF     1.0000000000000000E-10
       TAU_CUTOFF     1.0000000000000000E-10
       &XC_FUNCTIONAL  NO_SHORTCUT
         &PADE  T
         &END PADE
       &END XC_FUNCTIONAL
     &END XC
     &POISSON
       PERIODIC  XYZ
     &END POISSON
     &KPOINTS
       SCHEME MONKHORST-PACK 2 2 1
       SYMMETRY  F
       FULL_GRID  T
       VERBOSE  T
       EPS_GEO     1.0000000000000000E-08
       PARALLEL_GROUP_SIZE  0
     &END KPOINTS
     &PRINT
       &E_DENSITY_CUBE  ON
         STRIDE  2 2 2
       &END E_DENSITY_CUBE
       &V_HARTREE_CUBE  SILENT
         STRIDE  2 2 2
       &END V_HARTREE_CUBE
       &HIRSHFELD  SILENT
         SHAPE_FUNCTION  DENSITY
       &END HIRSHFELD
     &END PRINT
   &END DFT
   &SUBSYS
     &CELL
       A     8.2919999999999998E+00    0.0000000000000000E+00    0.0000000000000000E+00
       B     0.0000000000000000E+00    8.2919999999999998E+00    0.0000000000000000E+00
       C     0.0000000000000000E+00    0.0000000000000000E+00    3.4018000000000001E+01
       PERIODIC  XYZ
       MULTIPLE_UNIT_CELL  1 1 1
     &END CELL
     &COORD
Au    0.0000000000000000E+00    0.0000000000000000E+00    0.0000000000000000E+00
Au    0.0000000000000000E+00    4.1459999999999999E+00    0.0000000000000000E+00
Au    2.0730000000000000E+00    2.0730000000000000E+00    0.0000000000000000E+00
Au    2.0730000000000000E+00    6.2190000000000012E+00    0.0000000000000000E+00
Au    4.1459999999999999E+00    0.0000000000000000E+00    0.0000000000000000E+00
Au    4.1459999999999999E+00    4.1459999999999999E+00    0.0000000000000000E+00
Au    6.2190000000000012E+00    2.0730000000000000E+00    0.0000000000000000E+00
Au    6.2190000000000012E+00    6.2190000000000012E+00    0.0000000000000000E+00
Au    0.0000000000000000E+00    2.0730000000000000E+00    2.0730000000000000E+00
Au    0.0000000000000000E+00    6.2190000000000012E+00    2.0730000000000000E+00
Au    2.0730000000000000E+00    0.0000000000000000E+00    2.0730000000000000E+00
Au    2.0730000000000000E+00    4.1459999999999999E+00    2.0730000000000000E+00
Au    4.1459999999999999E+00    2.0730000000000000E+00    2.0730000000000000E+00
Au    4.1459999999999999E+00    6.2190000000000012E+00    2.0730000000000000E+00
Au    6.2190000000000012E+00    0.0000000000000000E+00    2.0730000000000000E+00
Au    6.2190000000000012E+00    4.1459999999999999E+00    2.0730000000000000E+00
Au    0.0000000000000000E+00    0.0000000000000000E+00    4.1459999999999999E+00
Au    0.0000000000000000E+00    4.1459999999999999E+00    4.1459999999999999E+00
Au    2.0730000000000000E+00    2.0730000000000000E+00    4.1459999999999999E+00
Au    2.0730000000000000E+00    6.2190000000000012E+00    4.1459999999999999E+00
Au    4.1459999999999999E+00    0.0000000000000000E+00    4.1459999999999999E+00
Au    4.1459999999999999E+00    4.1459999999999999E+00    4.1459999999999999E+00
Au    6.2190000000000012E+00    2.0730000000000000E+00    4.1459999999999999E+00
Au    6.2190000000000012E+00    6.2190000000000012E+00    4.1459999999999999E+00
Au    0.0000000000000000E+00    2.0730000000000000E+00    6.2190000000000012E+00
Au    0.0000000000000000E+00    6.2190000000000012E+00    6.2190000000000012E+00
Au    2.0730000000000000E+00    0.0000000000000000E+00    6.2190000000000012E+00
Au    2.0730000000000000E+00    4.1459999999999999E+00    6.2190000000000012E+00
Au    4.1459999999999999E+00    2.0730000000000000E+00    6.2190000000000012E+00
Au    4.1459999999999999E+00    6.2190000000000012E+00    6.2190000000000012E+00
Au    6.2190000000000012E+00    0.0000000000000000E+00    6.2190000000000012E+00
Au    6.2190000000000012E+00    4.1459999999999999E+00    6.2190000000000012E+00
Au    0.0000000000000000E+00    0.0000000000000000E+00    8.2919999999999998E+00
Au    0.0000000000000000E+00    4.1459999999999999E+00    8.2919999999999998E+00
Au    2.0730000000000000E+00    2.0730000000000000E+00    8.2919999999999998E+00
Au    2.0730000000000000E+00    6.2190000000000012E+00    8.2919999999999998E+00
Au    4.1459999999999999E+00    0.0000000000000000E+00    8.2919999999999998E+00
Au    4.1459999999999999E+00    4.1459999999999999E+00    8.2919999999999998E+00
Au    6.2190000000000012E+00    2.0730000000000000E+00    8.2919999999999998E+00
Au    6.2190000000000012E+00    6.2190000000000012E+00    8.2919999999999998E+00
Au   -3.2298295541558527E-04    2.0736820008260679E+00    1.0355066183245546E+01
Au   -3.8703339913736510E-06    6.2180072233603552E+00    1.0332002995782030E+01
Au    2.0847421650697897E+00    2.4087842052879969E-02    1.0388159924725317E+01
Au    2.0862628115012822E+00    4.1215289599640981E+00    1.0390915802518307E+01
Au    4.1458622925936286E+00    2.0735470864072965E+00    1.0353857839974125E+01
Au    4.1461109097456781E+00    6.2199100656947923E+00    1.0324632634029147E+01
Au    6.2074286699459993E+00    2.3972191873243998E-02    1.0388112435513783E+01
Au    6.2058837675780216E+00    4.1216396334798162E+00    1.0390890591447121E+01
Au   -3.8146435539427887E-04   -6.1871486204258419E-02    1.2472335224324892E+01
Au   -3.7456623992363121E-04    4.2073931391314252E+00    1.2471504430549350E+01
Au    1.8806236695931391E+00    2.0700704155825340E+00    1.2500408284166236E+01
Au    1.9973955685111540E+00    6.2217358982579780E+00    1.2458462044624916E+01
Au    4.1468373230000539E+00   -2.0070455829400871E-01    1.2449885164206220E+01
Au    4.1468224425418212E+00    4.3581616949657453E+00    1.2453514811474834E+01
Au    6.4103692478429348E+00    2.0700525138821444E+00    1.2501341284781128E+01
Au    6.2948318208240863E+00    6.2217398102717709E+00    1.2460076050754630E+01
S    4.1440807911808131E+00    2.0854668084571846E+00    1.3819757503580917E+01
C    4.1431998363332561E+00    2.0810159624163056E+00    1.5617291206234565E+01
H    1.9829785474520862E+00    2.0793391341482454E+00    1.5749349984799014E+01
H    6.3034512086490517E+00    2.0795002186534952E+00    1.5751932702886084E+01
C    2.9174983950473772E+00    2.0777532322714567E+00    1.6300437683101979E+01
C    5.3682105215152989E+00    2.0773326783768971E+00    1.6301717833391521E+01
C    2.9165935234699387E+00    2.0703530219888973E+00    1.7698116953559573E+01
C    5.3676274157276200E+00    2.0708500640269238E+00    1.7699462127567173E+01
H    1.9814135392104959E+00    2.0674402488623116E+00    1.8247865415043112E+01
H    6.3020237159813641E+00    2.0673292384506876E+00    1.8250443144266864E+01
C    4.1417780945679707E+00    2.0680264717718098E+00    1.8382303940011383E+01
S    4.1410012343554241E+00    2.0645496892611650E+00    2.0179357773645616E+01
Au   -1.9694737846270551E-02   -6.5949726919973167E-02    2.1541623223203882E+01
Au   -2.1380882338999034E-02    4.2129499858283381E+00    2.1539799432502701E+01
Au    1.8746944000930621E+00    2.0756635274222166E+00    2.1531963453126089E+01
Au    1.9889605030314816E+00    6.2164464693950485E+00    2.1534249075590605E+01
Au    4.1091066640337468E+00   -1.7118709465946225E-01    2.1571580022979166E+01
Au    4.1115754646481593E+00    4.3106673454333757E+00    2.1573116542702884E+01
Au    6.3894514354911234E+00    2.0743778021217563E+00    2.1542218086891207E+01
Au    6.2190000000000012E+00    6.2190000000000012E+00    2.1580000000000002E+01
Au    0.0000000000000000E+00    2.0730000000000000E+00    2.3652999999999999E+01
Au    0.0000000000000000E+00    6.2190000000000012E+00    2.3652999999999999E+01
Au    2.0730000000000000E+00    0.0000000000000000E+00    2.3652999999999999E+01
Au    2.0730000000000000E+00    4.1459999999999999E+00    2.3652999999999999E+01
Au    4.1459999999999999E+00    2.0730000000000000E+00    2.3652999999999999E+01
Au    4.1459999999999999E+00    6.2190000000000012E+00    2.3652999999999999E+01
Au    6.2190000000000012E+00    0.0000000000000000E+00    2.3652999999999999E+01
Au    6.2190000000000012E+00    4.1459999999999999E+00    2.3652999999999999E+01
Au    0.0000000000000000E+00    0.0000000000000000E+00    2.5726000000000003E+01
Au    0.0000000000000000E+00    4.1459999999999999E+00    2.5726000000000003E+01
Au    2.0730000000000000E+00    2.0730000000000000E+00    2.5726000000000003E+01
Au    2.0730000000000000E+00    6.2190000000000012E+00    2.5726000000000003E+01
Au    4.1459999999999999E+00    0.0000000000000000E+00    2.5726000000000003E+01
Au    4.1459999999999999E+00    4.1459999999999999E+00    2.5726000000000003E+01
Au    6.2190000000000012E+00    2.0730000000000000E+00    2.5726000000000003E+01
Au    6.2190000000000012E+00    6.2190000000000012E+00    2.5726000000000003E+01
Au    0.0000000000000000E+00    2.0730000000000000E+00    2.7798999999999999E+01
Au    0.0000000000000000E+00    6.2190000000000012E+00    2.7798999999999999E+01
Au    2.0730000000000000E+00    0.0000000000000000E+00    2.7798999999999999E+01
Au    2.0730000000000000E+00    4.1459999999999999E+00    2.7798999999999999E+01
Au    4.1459999999999999E+00    2.0730000000000000E+00    2.7798999999999999E+01
Au    4.1459999999999999E+00    6.2190000000000012E+00    2.7798999999999999E+01
Au    6.2190000000000012E+00    0.0000000000000000E+00    2.7798999999999999E+01
Au    6.2190000000000012E+00    4.1459999999999999E+00    2.7798999999999999E+01
Au    0.0000000000000000E+00    0.0000000000000000E+00    2.9872000000000000E+01
Au    0.0000000000000000E+00    4.1459999999999999E+00    2.9872000000000000E+01
Au    2.0730000000000000E+00    2.0730000000000000E+00    2.9872000000000000E+01
Au    2.0730000000000000E+00    6.2190000000000012E+00    2.9872000000000000E+01
Au    4.1459999999999999E+00    0.0000000000000000E+00    2.9872000000000000E+01
Au    4.1459999999999999E+00    4.1459999999999999E+00    2.9872000000000000E+01
Au    6.2190000000000012E+00    2.0730000000000000E+00    2.9872000000000000E+01
Au    6.2190000000000012E+00    6.2190000000000012E+00    2.9872000000000000E+01
Au    0.0000000000000000E+00    2.0730000000000000E+00    3.1945000000000004E+01
Au    0.0000000000000000E+00    6.2190000000000012E+00    3.1945000000000004E+01
Au    2.0730000000000000E+00    0.0000000000000000E+00    3.1945000000000004E+01
Au    2.0730000000000000E+00    4.1459999999999999E+00    3.1945000000000004E+01
Au    4.1459999999999999E+00    2.0730000000000000E+00    3.1945000000000004E+01
Au    4.1459999999999999E+00    6.2190000000000012E+00    3.1945000000000004E+01
Au    6.2190000000000012E+00    0.0000000000000000E+00    3.1945000000000004E+01
Au    6.2190000000000012E+00    4.1459999999999999E+00    3.1945000000000004E+01
     &END COORD
     &KIND Au
       BASIS_SET SZV-MOLOPT-SR-GTH
       POTENTIAL GTH-PADE-q11
       &POTENTIAL
 1 0 10
  0.5900000000000000E+00 1  0.1160442790000000E+02
 3
  0.5211797500000001E+00 2  0.2538613590000000E+01 -0.1046136640000000E+01
  0.2701113200000000E+01
  0.6306130599999999E+00 2  0.3948527000000000E+00 -0.8695921300000000E+00
  0.2057830560000000E+01
  0.4407064300000000E+00 2 -0.4719069660000000E+01  0.7277708100000000E+00
 -0.1650429070000000E+01
         # Potential name:  GTH-PADE-Q11  for symbol:  AU
         # Potential read from the potential filename: GTH_POTENTIALS
       &END POTENTIAL
     &END KIND
     &KIND C
       BASIS_SET SZV-MOLOPT-SR-GTH
       ELEMENT C
       POTENTIAL GTH-PADE-q4
       &POTENTIAL
 2 2
  0.3488304500000000E+00 2 -0.8513771100000000E+01  0.1228432030000000E+01
 2
  0.3045532100000000E+00 1  0.9522841789999999E+01
  0.2326773000000000E+00 0
         # Potential name:  GTH-PADE-Q4  for symbol:  C
         # Potential read from the potential filename: GTH_POTENTIALS
       &END POTENTIAL
     &END KIND
     &KIND S
       BASIS_SET SZV-MOLOPT-SR-GTH
       ELEMENT S
       POTENTIAL GTH-PADE-q6
       &POTENTIAL
 2 4
  0.4200000000000000E+00 1 -0.6554491840000000E+01
 2
  0.3617566500000000E+00 2  0.7905302500000000E+01 -0.1731881300000000E+01
  0.4471698300000000E+01
  0.4052850200000000E+00 1  0.3866579000000000E+01
         # Potential name:  GTH-PADE-Q6  for symbol:  S
         # Potential read from the potential filename: GTH_POTENTIALS
       &END POTENTIAL
     &END KIND
     &KIND H
       BASIS_SET SZV-MOLOPT-SR-GTH
       ELEMENT H
       POTENTIAL GTH-PADE-q1
       &POTENTIAL
 1
  0.2000000000000000E+00 2 -0.4180236800000000E+01  0.7250748200000000E+00
 0
         # Potential name:  GTH-PADE-Q1  for symbol:  H
         # Potential read from the potential filename: GTH_POTENTIALS
       &END POTENTIAL
     &END KIND
     &TOPOLOGY
       COORD_FILE_NAME em.xyz
       COORD_FILE_FORMAT  XYZ
       NUMBER_OF_ATOMS  116
       MULTIPLE_UNIT_CELL  1 1 1
     &END TOPOLOGY
   &END SUBSYS
 &END FORCE_EVAL
