 # Version information for this restart file 
 # current date 2023-02-22 11:08:00.730
 # current working dir /work4/scd/scarf1157/work/testing/cp2k-smeagol/bdt/cp2k/hollow-site/transport-cp2k/5-4/geometry-ordered/3x3-4/sz/bulk_layers-4/geo_opt/dzvp/Au-S-2.45_dft
 # Program compiled at                              Thu 26 Jan 13:39:53 GMT 2023
 # Program compiled on                                     cn1108.scarf.rl.ac.uk
 # Program compiled for                                                    local
 # Source code revision number                                       git:1ef701d
 &GLOBAL
   EXTENDED_FFT_LENGTHS  T
   PRINT_LEVEL  MEDIUM
   PROJECT_NAME dft_wfn
   RUN_TYPE  GEO_OPT
 &END GLOBAL
 &MOTION
   &GEO_OPT
     OPTIMIZER  BFGS
     MAX_ITER  1000
     STEP_START_VAL  9
   &END GEO_OPT
   &CONSTRAINT
     &FIXED_ATOMS
       LIST  1..40 76..116
     &END FIXED_ATOMS
   &END CONSTRAINT
   &PRINT
     &TRAJECTORY  ON
       FORMAT  XMOL
     &END TRAJECTORY
   &END PRINT
 &END MOTION
 &FORCE_EVAL
   METHOD  QS
   &DFT
     BASIS_SET_FILE_NAME BASIS_MOLOPT
     POTENTIAL_FILE_NAME GTH_POTENTIALS
     &SCF
       MAX_SCF  100
       EPS_SCF     9.9999999999999995E-08
       SCF_GUESS  ATOMIC
       ADDED_MOS  100
       &SMEAR  T
         METHOD  FERMI_DIRAC
         ELECTRONIC_TEMPERATURE     2.9300000000000000E+02
       &END SMEAR
       &MIXING  T
         METHOD  BROYDEN_MIXING
         ALPHA     2.9999999999999999E-01
         NBUFFER  8
       &END MIXING
       &PRINT
         &RESTART  SILENT
           FILENAME RESTART_0
         &END RESTART
       &END PRINT
     &END SCF
     &MGRID
       CUTOFF     4.0000000000000000E+02
     &END MGRID
     &XC
       DENSITY_CUTOFF     1.0000000000000000E-10
       GRADIENT_CUTOFF     1.0000000000000000E-10
       TAU_CUTOFF     1.0000000000000000E-10
       &XC_FUNCTIONAL  NO_SHORTCUT
         &PADE  T
         &END PADE
       &END XC_FUNCTIONAL
     &END XC
     &POISSON
       PERIODIC  XYZ
     &END POISSON
     &KPOINTS
       SCHEME MONKHORST-PACK 2 2 1
       SYMMETRY  F
       FULL_GRID  T
       VERBOSE  T
       EPS_GEO     1.0000000000000000E-08
       PARALLEL_GROUP_SIZE  0
     &END KPOINTS
     &PRINT
       &E_DENSITY_CUBE  ON
         STRIDE  2 2 2
       &END E_DENSITY_CUBE
       &V_HARTREE_CUBE  SILENT
         STRIDE  2 2 2
       &END V_HARTREE_CUBE
       &HIRSHFELD  SILENT
         SHAPE_FUNCTION  DENSITY
       &END HIRSHFELD
     &END PRINT
   &END DFT
   &SUBSYS
     &CELL
       A     8.2919999999999998E+00    0.0000000000000000E+00    0.0000000000000000E+00
       B     0.0000000000000000E+00    8.2919999999999998E+00    0.0000000000000000E+00
       C     0.0000000000000000E+00    0.0000000000000000E+00    3.3834000000000003E+01
       PERIODIC  XYZ
       MULTIPLE_UNIT_CELL  1 1 1
     &END CELL
     &COORD
Au    0.0000000000000000E+00    0.0000000000000000E+00    0.0000000000000000E+00
Au    0.0000000000000000E+00    4.1459999999999999E+00    0.0000000000000000E+00
Au    2.0730000000000000E+00    2.0730000000000000E+00    0.0000000000000000E+00
Au    2.0730000000000000E+00    6.2190000000000012E+00    0.0000000000000000E+00
Au    4.1459999999999999E+00    0.0000000000000000E+00    0.0000000000000000E+00
Au    4.1459999999999999E+00    4.1459999999999999E+00    0.0000000000000000E+00
Au    6.2190000000000012E+00    2.0730000000000000E+00    0.0000000000000000E+00
Au    6.2190000000000012E+00    6.2190000000000012E+00    0.0000000000000000E+00
Au    0.0000000000000000E+00    2.0730000000000000E+00    2.0730000000000000E+00
Au    0.0000000000000000E+00    6.2190000000000012E+00    2.0730000000000000E+00
Au    2.0730000000000000E+00    0.0000000000000000E+00    2.0730000000000000E+00
Au    2.0730000000000000E+00    4.1459999999999999E+00    2.0730000000000000E+00
Au    4.1459999999999999E+00    2.0730000000000000E+00    2.0730000000000000E+00
Au    4.1459999999999999E+00    6.2190000000000012E+00    2.0730000000000000E+00
Au    6.2190000000000012E+00    0.0000000000000000E+00    2.0730000000000000E+00
Au    6.2190000000000012E+00    4.1459999999999999E+00    2.0730000000000000E+00
Au    0.0000000000000000E+00    0.0000000000000000E+00    4.1459999999999999E+00
Au    0.0000000000000000E+00    4.1459999999999999E+00    4.1459999999999999E+00
Au    2.0730000000000000E+00    2.0730000000000000E+00    4.1459999999999999E+00
Au    2.0730000000000000E+00    6.2190000000000012E+00    4.1459999999999999E+00
Au    4.1459999999999999E+00    0.0000000000000000E+00    4.1459999999999999E+00
Au    4.1459999999999999E+00    4.1459999999999999E+00    4.1459999999999999E+00
Au    6.2190000000000012E+00    2.0730000000000000E+00    4.1459999999999999E+00
Au    6.2190000000000012E+00    6.2190000000000012E+00    4.1459999999999999E+00
Au    0.0000000000000000E+00    2.0730000000000000E+00    6.2190000000000012E+00
Au    0.0000000000000000E+00    6.2190000000000012E+00    6.2190000000000012E+00
Au    2.0730000000000000E+00    0.0000000000000000E+00    6.2190000000000012E+00
Au    2.0730000000000000E+00    4.1459999999999999E+00    6.2190000000000012E+00
Au    4.1459999999999999E+00    2.0730000000000000E+00    6.2190000000000012E+00
Au    4.1459999999999999E+00    6.2190000000000012E+00    6.2190000000000012E+00
Au    6.2190000000000012E+00    0.0000000000000000E+00    6.2190000000000012E+00
Au    6.2190000000000012E+00    4.1459999999999999E+00    6.2190000000000012E+00
Au    0.0000000000000000E+00    0.0000000000000000E+00    8.2919999999999998E+00
Au    0.0000000000000000E+00    4.1459999999999999E+00    8.2919999999999998E+00
Au    2.0730000000000000E+00    2.0730000000000000E+00    8.2919999999999998E+00
Au    2.0730000000000000E+00    6.2190000000000012E+00    8.2919999999999998E+00
Au    4.1459999999999999E+00    0.0000000000000000E+00    8.2919999999999998E+00
Au    4.1459999999999999E+00    4.1459999999999999E+00    8.2919999999999998E+00
Au    6.2190000000000012E+00    2.0730000000000000E+00    8.2919999999999998E+00
Au    6.2190000000000012E+00    6.2190000000000012E+00    8.2919999999999998E+00
Au   -5.6378403673032495E-05    2.0731597558292831E+00    1.0374157928187776E+01
Au   -3.5515210674819747E-05    6.2181035923748107E+00    1.0334105426296931E+01
Au    2.0842361892195616E+00    2.3914988559286459E-02    1.0384169015298534E+01
Au    2.0852293174108270E+00    4.1212347215382072E+00    1.0386654786381156E+01
Au    4.1459251593248769E+00    2.0734602138070204E+00    1.0355919844855384E+01
Au    4.1460500277322527E+00    6.2188278478685977E+00    1.0343229713324311E+01
Au    6.2078794962843187E+00    2.3819021547703267E-02    1.0384233239195019E+01
Au    6.2068718985664901E+00    4.1213226901072355E+00    1.0386735638023817E+01
Au   -1.9574169598018712E-04   -5.3890965764134005E-02    1.2468234343206488E+01
Au   -1.7920241362917062E-04    4.1991206804628405E+00    1.2467025803921450E+01
Au    1.9032135714319829E+00    2.0693469304451435E+00    1.2512607603658493E+01
Au    2.0056447709703327E+00    6.2214873293359911E+00    1.2452032472213821E+01
Au    4.1465794680773307E+00   -1.7527312241428308E-01    1.2458336893080793E+01
Au    4.1465645241688716E+00    4.3311899955103836E+00    1.2462534946046969E+01
Au    6.3887318036223064E+00    2.0693485394588054E+00    1.2513138173943227E+01
Au    6.2863647279512795E+00    6.2214891348035311E+00    1.2453433769520228E+01
S    4.1448946508644928E+00    2.0882663192164257E+00    1.3786757142432899E+01
C    4.1432065457946399E+00    2.0828913394474817E+00    1.5536477845640583E+01
H    1.9955040600151652E+00    2.0805388533161127E+00    1.5656707783503112E+01
H    6.2908916557172621E+00    2.0804128710067507E+00    1.5662096402541815E+01
C    2.9302443610290236E+00    2.0775119162693154E+00    1.6221736442459147E+01
C    5.3546102245027880E+00    2.0774311825571714E+00    1.6224487661140557E+01
C    2.9287035537211517E+00    2.0683513357153633E+00    1.7600611513186273E+01
C    5.3527142822073186E+00    2.0682627906549840E+00    1.7603304732698394E+01
H    1.9923938683627960E+00    2.0647000603697880E+00    1.8162904018186854E+01
H    6.2872480028156508E+00    2.0645433068502874E+00    1.8168403094274794E+01
C    4.1399921169306912E+00    2.0634489263399884E+00    1.8288726646468138E+01
S    4.1395262604860550E+00    2.0595163915592325E+00    2.0038805684592788E+01
Au   -1.6854840700516963E-02   -5.8479539417685245E-02    2.1362648763374853E+01
Au   -1.8257685579786107E-02    4.2059948132537599E+00    2.1360687087974924E+01
Au    1.8886832000531744E+00    2.0764110699910732E+00    2.1343793859419332E+01
Au    2.0003537616760818E+00    6.2162195490444496E+00    2.1357951915896500E+01
Au    4.1144565981345487E+00   -1.5423958931796580E-01    2.1380778437034557E+01
Au    4.1167757420444246E+00    4.2923208298503264E+00    2.1383326714485484E+01
Au    6.3763362993177601E+00    2.0757368840617763E+00    2.1351218327926468E+01
Au    6.2190000000000012E+00    6.2190000000000012E+00    2.1396000000000001E+01
Au    0.0000000000000000E+00    2.0730000000000000E+00    2.3469000000000001E+01
Au    0.0000000000000000E+00    6.2190000000000012E+00    2.3469000000000001E+01
Au    2.0730000000000000E+00    0.0000000000000000E+00    2.3469000000000001E+01
Au    2.0730000000000000E+00    4.1459999999999999E+00    2.3469000000000001E+01
Au    4.1459999999999999E+00    2.0730000000000000E+00    2.3469000000000001E+01
Au    4.1459999999999999E+00    6.2190000000000012E+00    2.3469000000000001E+01
Au    6.2190000000000012E+00    0.0000000000000000E+00    2.3469000000000001E+01
Au    6.2190000000000012E+00    4.1459999999999999E+00    2.3469000000000001E+01
Au    0.0000000000000000E+00    0.0000000000000000E+00    2.5542000000000005E+01
Au    0.0000000000000000E+00    4.1459999999999999E+00    2.5542000000000005E+01
Au    2.0730000000000000E+00    2.0730000000000000E+00    2.5542000000000005E+01
Au    2.0730000000000000E+00    6.2190000000000012E+00    2.5542000000000005E+01
Au    4.1459999999999999E+00    0.0000000000000000E+00    2.5542000000000005E+01
Au    4.1459999999999999E+00    4.1459999999999999E+00    2.5542000000000005E+01
Au    6.2190000000000012E+00    2.0730000000000000E+00    2.5542000000000005E+01
Au    6.2190000000000012E+00    6.2190000000000012E+00    2.5542000000000005E+01
Au    0.0000000000000000E+00    2.0730000000000000E+00    2.7614999999999998E+01
Au    0.0000000000000000E+00    6.2190000000000012E+00    2.7614999999999998E+01
Au    2.0730000000000000E+00    0.0000000000000000E+00    2.7614999999999998E+01
Au    2.0730000000000000E+00    4.1459999999999999E+00    2.7614999999999998E+01
Au    4.1459999999999999E+00    2.0730000000000000E+00    2.7614999999999998E+01
Au    4.1459999999999999E+00    6.2190000000000012E+00    2.7614999999999998E+01
Au    6.2190000000000012E+00    0.0000000000000000E+00    2.7614999999999998E+01
Au    6.2190000000000012E+00    4.1459999999999999E+00    2.7614999999999998E+01
Au    0.0000000000000000E+00    0.0000000000000000E+00    2.9688000000000002E+01
Au    0.0000000000000000E+00    4.1459999999999999E+00    2.9688000000000002E+01
Au    2.0730000000000000E+00    2.0730000000000000E+00    2.9688000000000002E+01
Au    2.0730000000000000E+00    6.2190000000000012E+00    2.9688000000000002E+01
Au    4.1459999999999999E+00    0.0000000000000000E+00    2.9688000000000002E+01
Au    4.1459999999999999E+00    4.1459999999999999E+00    2.9688000000000002E+01
Au    6.2190000000000012E+00    2.0730000000000000E+00    2.9688000000000002E+01
Au    6.2190000000000012E+00    6.2190000000000012E+00    2.9688000000000002E+01
Au    0.0000000000000000E+00    2.0730000000000000E+00    3.1760999999999999E+01
Au    0.0000000000000000E+00    6.2190000000000012E+00    3.1760999999999999E+01
Au    2.0730000000000000E+00    0.0000000000000000E+00    3.1760999999999999E+01
Au    2.0730000000000000E+00    4.1459999999999999E+00    3.1760999999999999E+01
Au    4.1459999999999999E+00    2.0730000000000000E+00    3.1760999999999999E+01
Au    4.1459999999999999E+00    6.2190000000000012E+00    3.1760999999999999E+01
Au    6.2190000000000012E+00    0.0000000000000000E+00    3.1760999999999999E+01
Au    6.2190000000000012E+00    4.1459999999999999E+00    3.1760999999999999E+01
     &END COORD
     &KIND Au
       BASIS_SET SZV-MOLOPT-SR-GTH
       POTENTIAL GTH-PADE-q11
       &POTENTIAL
 1 0 10
  0.5900000000000000E+00 1  0.1160442790000000E+02
 3
  0.5211797500000001E+00 2  0.2538613590000000E+01 -0.1046136640000000E+01
  0.2701113200000000E+01
  0.6306130599999999E+00 2  0.3948527000000000E+00 -0.8695921300000000E+00
  0.2057830560000000E+01
  0.4407064300000000E+00 2 -0.4719069660000000E+01  0.7277708100000000E+00
 -0.1650429070000000E+01
         # Potential name:  GTH-PADE-Q11  for symbol:  AU
         # Potential read from the potential filename: GTH_POTENTIALS
       &END POTENTIAL
     &END KIND
     &KIND C
       BASIS_SET DZVP-MOLOPT-SR-GTH
       ELEMENT C
       POTENTIAL GTH-PADE-q4
       &POTENTIAL
 2 2
  0.3488304500000000E+00 2 -0.8513771100000000E+01  0.1228432030000000E+01
 2
  0.3045532100000000E+00 1  0.9522841789999999E+01
  0.2326773000000000E+00 0
         # Potential name:  GTH-PADE-Q4  for symbol:  C
         # Potential read from the potential filename: GTH_POTENTIALS
       &END POTENTIAL
     &END KIND
     &KIND S
       BASIS_SET DZVP-MOLOPT-SR-GTH
       ELEMENT S
       POTENTIAL GTH-PADE-q6
       &POTENTIAL
 2 4
  0.4200000000000000E+00 1 -0.6554491840000000E+01
 2
  0.3617566500000000E+00 2  0.7905302500000000E+01 -0.1731881300000000E+01
  0.4471698300000000E+01
  0.4052850200000000E+00 1  0.3866579000000000E+01
         # Potential name:  GTH-PADE-Q6  for symbol:  S
         # Potential read from the potential filename: GTH_POTENTIALS
       &END POTENTIAL
     &END KIND
     &KIND H
       BASIS_SET DZVP-MOLOPT-SR-GTH
       ELEMENT H
       POTENTIAL GTH-PADE-q1
       &POTENTIAL
 1
  0.2000000000000000E+00 2 -0.4180236800000000E+01  0.7250748200000000E+00
 0
         # Potential name:  GTH-PADE-Q1  for symbol:  H
         # Potential read from the potential filename: GTH_POTENTIALS
       &END POTENTIAL
     &END KIND
     &TOPOLOGY
       COORD_FILE_NAME em.xyz
       COORD_FILE_FORMAT  XYZ
       NUMBER_OF_ATOMS  116
       MULTIPLE_UNIT_CELL  1 1 1
     &END TOPOLOGY
   &END SUBSYS
 &END FORCE_EVAL
