 # Version information for this restart file 
 # current date 2023-02-21 22:08:10.494
 # current working dir /work4/scd/scarf1157/work/testing/cp2k-smeagol/bdt/cp2k/hollow-site/transport-cp2k/5-4/geometry-ordered/3x3-4/sz/bulk_layers-4/geo_opt/Au-S-2.75_dft
 # Program compiled at                              Thu 26 Jan 13:39:53 GMT 2023
 # Program compiled on                                     cn1108.scarf.rl.ac.uk
 # Program compiled for                                                    local
 # Source code revision number                                       git:1ef701d
 &GLOBAL
   EXTENDED_FFT_LENGTHS  T
   PRINT_LEVEL  MEDIUM
   PROJECT_NAME dft_wfn
   RUN_TYPE  GEO_OPT
 &END GLOBAL
 &MOTION
   &GEO_OPT
     OPTIMIZER  BFGS
     MAX_ITER  1000
     STEP_START_VAL  16
   &END GEO_OPT
   &CONSTRAINT
     &FIXED_ATOMS
       LIST  1..40 76..116
     &END FIXED_ATOMS
   &END CONSTRAINT
   &PRINT
     &TRAJECTORY  ON
       FORMAT  XMOL
     &END TRAJECTORY
   &END PRINT
 &END MOTION
 &FORCE_EVAL
   METHOD  QS
   &DFT
     BASIS_SET_FILE_NAME BASIS_MOLOPT
     POTENTIAL_FILE_NAME GTH_POTENTIALS
     &SCF
       MAX_SCF  100
       EPS_SCF     9.9999999999999995E-08
       SCF_GUESS  ATOMIC
       ADDED_MOS  100
       &SMEAR  T
         METHOD  FERMI_DIRAC
         ELECTRONIC_TEMPERATURE     2.9300000000000000E+02
       &END SMEAR
       &MIXING  T
         METHOD  BROYDEN_MIXING
         ALPHA     2.9999999999999999E-01
         NBUFFER  8
       &END MIXING
       &PRINT
         &RESTART  SILENT
           FILENAME RESTART_0
         &END RESTART
       &END PRINT
     &END SCF
     &MGRID
       CUTOFF     4.0000000000000000E+02
     &END MGRID
     &XC
       DENSITY_CUTOFF     1.0000000000000000E-10
       GRADIENT_CUTOFF     1.0000000000000000E-10
       TAU_CUTOFF     1.0000000000000000E-10
       &XC_FUNCTIONAL  NO_SHORTCUT
         &PADE  T
         &END PADE
       &END XC_FUNCTIONAL
     &END XC
     &POISSON
       PERIODIC  XYZ
     &END POISSON
     &KPOINTS
       SCHEME MONKHORST-PACK 2 2 1
       SYMMETRY  F
       FULL_GRID  T
       VERBOSE  T
       EPS_GEO     1.0000000000000000E-08
       PARALLEL_GROUP_SIZE  0
     &END KPOINTS
     &PRINT
       &E_DENSITY_CUBE  ON
         STRIDE  2 2 2
       &END E_DENSITY_CUBE
       &V_HARTREE_CUBE  SILENT
         STRIDE  2 2 2
       &END V_HARTREE_CUBE
       &HIRSHFELD  SILENT
         SHAPE_FUNCTION  DENSITY
       &END HIRSHFELD
     &END PRINT
   &END DFT
   &SUBSYS
     &CELL
       A     8.2919999999999998E+00    0.0000000000000000E+00    0.0000000000000000E+00
       B     0.0000000000000000E+00    8.2919999999999998E+00    0.0000000000000000E+00
       C     0.0000000000000000E+00    0.0000000000000000E+00    3.4837000000000003E+01
       PERIODIC  XYZ
       MULTIPLE_UNIT_CELL  1 1 1
     &END CELL
     &COORD
Au    0.0000000000000000E+00    0.0000000000000000E+00    0.0000000000000000E+00
Au    0.0000000000000000E+00    4.1459999999999999E+00    0.0000000000000000E+00
Au    2.0730000000000000E+00    2.0730000000000000E+00    0.0000000000000000E+00
Au    2.0730000000000000E+00    6.2190000000000012E+00    0.0000000000000000E+00
Au    4.1459999999999999E+00    0.0000000000000000E+00    0.0000000000000000E+00
Au    4.1459999999999999E+00    4.1459999999999999E+00    0.0000000000000000E+00
Au    6.2190000000000012E+00    2.0730000000000000E+00    0.0000000000000000E+00
Au    6.2190000000000012E+00    6.2190000000000012E+00    0.0000000000000000E+00
Au    0.0000000000000000E+00    2.0730000000000000E+00    2.0730000000000000E+00
Au    0.0000000000000000E+00    6.2190000000000012E+00    2.0730000000000000E+00
Au    2.0730000000000000E+00    0.0000000000000000E+00    2.0730000000000000E+00
Au    2.0730000000000000E+00    4.1459999999999999E+00    2.0730000000000000E+00
Au    4.1459999999999999E+00    2.0730000000000000E+00    2.0730000000000000E+00
Au    4.1459999999999999E+00    6.2190000000000012E+00    2.0730000000000000E+00
Au    6.2190000000000012E+00    0.0000000000000000E+00    2.0730000000000000E+00
Au    6.2190000000000012E+00    4.1459999999999999E+00    2.0730000000000000E+00
Au    0.0000000000000000E+00    0.0000000000000000E+00    4.1459999999999999E+00
Au    0.0000000000000000E+00    4.1459999999999999E+00    4.1459999999999999E+00
Au    2.0730000000000000E+00    2.0730000000000000E+00    4.1459999999999999E+00
Au    2.0730000000000000E+00    6.2190000000000012E+00    4.1459999999999999E+00
Au    4.1459999999999999E+00    0.0000000000000000E+00    4.1459999999999999E+00
Au    4.1459999999999999E+00    4.1459999999999999E+00    4.1459999999999999E+00
Au    6.2190000000000012E+00    2.0730000000000000E+00    4.1459999999999999E+00
Au    6.2190000000000012E+00    6.2190000000000012E+00    4.1459999999999999E+00
Au    0.0000000000000000E+00    2.0730000000000000E+00    6.2190000000000012E+00
Au    0.0000000000000000E+00    6.2190000000000012E+00    6.2190000000000012E+00
Au    2.0730000000000000E+00    0.0000000000000000E+00    6.2190000000000012E+00
Au    2.0730000000000000E+00    4.1459999999999999E+00    6.2190000000000012E+00
Au    4.1459999999999999E+00    2.0730000000000000E+00    6.2190000000000012E+00
Au    4.1459999999999999E+00    6.2190000000000012E+00    6.2190000000000012E+00
Au    6.2190000000000012E+00    0.0000000000000000E+00    6.2190000000000012E+00
Au    6.2190000000000012E+00    4.1459999999999999E+00    6.2190000000000012E+00
Au    0.0000000000000000E+00    0.0000000000000000E+00    8.2919999999999998E+00
Au    0.0000000000000000E+00    4.1459999999999999E+00    8.2919999999999998E+00
Au    2.0730000000000000E+00    2.0730000000000000E+00    8.2919999999999998E+00
Au    2.0730000000000000E+00    6.2190000000000012E+00    8.2919999999999998E+00
Au    4.1459999999999999E+00    0.0000000000000000E+00    8.2919999999999998E+00
Au    4.1459999999999999E+00    4.1459999999999999E+00    8.2919999999999998E+00
Au    6.2190000000000012E+00    2.0730000000000000E+00    8.2919999999999998E+00
Au    6.2190000000000012E+00    6.2190000000000012E+00    8.2919999999999998E+00
Au    1.3852799083439833E-05    2.0735706688279478E+00    1.0419499199172495E+01
Au    1.7713626680557087E-04    6.2188069678377556E+00    1.0344027807954884E+01
Au    2.0906546511840709E+00    3.1584916721002158E-02    1.0397215172332357E+01
Au    2.0909118837941514E+00    4.1148428328455289E+00    1.0398190936286086E+01
Au    4.1458640093167309E+00    2.0736093624133614E+00    1.0428688182164105E+01
Au    4.1460594278108527E+00    6.2189719397666492E+00    1.0382855163752714E+01
Au    6.2015295915890514E+00    3.1421786903307679E-02    1.0396908919435887E+01
Au    6.2012741102449382E+00    4.1150049142470753E+00    1.0397880896261723E+01
Au   -3.1373835386890178E-04   -3.5124794227176091E-02    1.2477917855534388E+01
Au   -3.2439240999073115E-04    4.1819398770455214E+00    1.2478624882123182E+01
Au    1.9721272053355083E+00    2.0727362212939253E+00    1.2587623142127075E+01
Au    2.0227605233515038E+00    6.2200413973450397E+00    1.2462719675585284E+01
Au    4.1465792738759735E+00   -1.2239869367042712E-01    1.2527580886446277E+01
Au    4.1465910243161614E+00    4.2715323415498938E+00    1.2529598975587055E+01
Au    6.3186784151345226E+00    2.0727280616210662E+00    1.2587289730073614E+01
Au    6.2694395617519056E+00    6.2200504396065961E+00    1.2463149145809384E+01
S    4.1440831158371498E+00    2.0771855169214115E+00    1.4192624204422586E+01
C    4.1432099251159000E+00    2.0780533857737664E+00    1.6024676452628757E+01
H    1.9831102320489209E+00    2.0769491380975573E+00    1.6205056409831737E+01
H    6.3032659511650788E+00    2.0770133375035056E+00    1.6207010013785261E+01
C    2.9275597313603869E+00    2.0779909015744247E+00    1.6737468032257006E+01
C    5.3582754964318511E+00    2.0782457290677994E+00    1.6738462872372200E+01
C    2.9268193128153888E+00    2.0782708607498064E+00    1.8142898918451859E+01
C    5.3578480423293282E+00    2.0781619376224243E+00    1.8143871583503664E+01
H    1.9817511834401369E+00    2.0770768758865477E+00    1.8674214736964586E+01
H    6.3022875551126321E+00    2.0772382725147573E+00    1.8676235373570961E+01
C    4.1420598898542700E+00    2.0778820567494458E+00    1.8856297891658489E+01
S    4.1414251575635070E+00    2.0765385466104669E+00    2.0688408730411624E+01
Au   -1.1886078606109782E-02   -3.1798198369860642E-02    2.2374173442253831E+01
Au   -1.1974707564873729E-02    4.1771382348471224E+00    2.2374614005259581E+01
Au    1.9621374525933901E+00    2.0722225719827057E+00    2.2312931554776064E+01
Au    2.0211341938306897E+00    6.2192069385736168E+00    2.2368389930746353E+01
Au    4.1244490918409129E+00   -1.0182167281762126E-01    2.2349801209732288E+01
Au    4.1242181923234886E+00    4.2491651938607573E+00    2.2349131339893031E+01
Au    6.3101963484294297E+00    2.0721333247155522E+00    2.2316030636985467E+01
Au    6.2190000000000012E+00    6.2190000000000012E+00    2.2399000000000001E+01
Au    0.0000000000000000E+00    2.0730000000000000E+00    2.4472000000000001E+01
Au    0.0000000000000000E+00    6.2190000000000012E+00    2.4472000000000001E+01
Au    2.0730000000000000E+00    0.0000000000000000E+00    2.4472000000000001E+01
Au    2.0730000000000000E+00    4.1459999999999999E+00    2.4472000000000001E+01
Au    4.1459999999999999E+00    2.0730000000000000E+00    2.4472000000000001E+01
Au    4.1459999999999999E+00    6.2190000000000012E+00    2.4472000000000001E+01
Au    6.2190000000000012E+00    0.0000000000000000E+00    2.4472000000000001E+01
Au    6.2190000000000012E+00    4.1459999999999999E+00    2.4472000000000001E+01
Au    0.0000000000000000E+00    0.0000000000000000E+00    2.6545000000000002E+01
Au    0.0000000000000000E+00    4.1459999999999999E+00    2.6545000000000002E+01
Au    2.0730000000000000E+00    2.0730000000000000E+00    2.6545000000000002E+01
Au    2.0730000000000000E+00    6.2190000000000012E+00    2.6545000000000002E+01
Au    4.1459999999999999E+00    0.0000000000000000E+00    2.6545000000000002E+01
Au    4.1459999999999999E+00    4.1459999999999999E+00    2.6545000000000002E+01
Au    6.2190000000000012E+00    2.0730000000000000E+00    2.6545000000000002E+01
Au    6.2190000000000012E+00    6.2190000000000012E+00    2.6545000000000002E+01
Au    0.0000000000000000E+00    2.0730000000000000E+00    2.8618000000000002E+01
Au    0.0000000000000000E+00    6.2190000000000012E+00    2.8618000000000002E+01
Au    2.0730000000000000E+00    0.0000000000000000E+00    2.8618000000000002E+01
Au    2.0730000000000000E+00    4.1459999999999999E+00    2.8618000000000002E+01
Au    4.1459999999999999E+00    2.0730000000000000E+00    2.8618000000000002E+01
Au    4.1459999999999999E+00    6.2190000000000012E+00    2.8618000000000002E+01
Au    6.2190000000000012E+00    0.0000000000000000E+00    2.8618000000000002E+01
Au    6.2190000000000012E+00    4.1459999999999999E+00    2.8618000000000002E+01
Au    0.0000000000000000E+00    0.0000000000000000E+00    3.0690999999999999E+01
Au    0.0000000000000000E+00    4.1459999999999999E+00    3.0690999999999999E+01
Au    2.0730000000000000E+00    2.0730000000000000E+00    3.0690999999999999E+01
Au    2.0730000000000000E+00    6.2190000000000012E+00    3.0690999999999999E+01
Au    4.1459999999999999E+00    0.0000000000000000E+00    3.0690999999999999E+01
Au    4.1459999999999999E+00    4.1459999999999999E+00    3.0690999999999999E+01
Au    6.2190000000000012E+00    2.0730000000000000E+00    3.0690999999999999E+01
Au    6.2190000000000012E+00    6.2190000000000012E+00    3.0690999999999999E+01
Au    0.0000000000000000E+00    2.0730000000000000E+00    3.2764000000000003E+01
Au    0.0000000000000000E+00    6.2190000000000012E+00    3.2764000000000003E+01
Au    2.0730000000000000E+00    0.0000000000000000E+00    3.2764000000000003E+01
Au    2.0730000000000000E+00    4.1459999999999999E+00    3.2764000000000003E+01
Au    4.1459999999999999E+00    2.0730000000000000E+00    3.2764000000000003E+01
Au    4.1459999999999999E+00    6.2190000000000012E+00    3.2764000000000003E+01
Au    6.2190000000000012E+00    0.0000000000000000E+00    3.2764000000000003E+01
Au    6.2190000000000012E+00    4.1459999999999999E+00    3.2764000000000003E+01
     &END COORD
     &KIND Au
       BASIS_SET SZV-MOLOPT-SR-GTH
       POTENTIAL GTH-PADE-q11
       &POTENTIAL
 1 0 10
  0.5900000000000000E+00 1  0.1160442790000000E+02
 3
  0.5211797500000001E+00 2  0.2538613590000000E+01 -0.1046136640000000E+01
  0.2701113200000000E+01
  0.6306130599999999E+00 2  0.3948527000000000E+00 -0.8695921300000000E+00
  0.2057830560000000E+01
  0.4407064300000000E+00 2 -0.4719069660000000E+01  0.7277708100000000E+00
 -0.1650429070000000E+01
         # Potential name:  GTH-PADE-Q11  for symbol:  AU
         # Potential read from the potential filename: GTH_POTENTIALS
       &END POTENTIAL
     &END KIND
     &KIND C
       BASIS_SET SZV-MOLOPT-SR-GTH
       ELEMENT C
       POTENTIAL GTH-PADE-q4
       &POTENTIAL
 2 2
  0.3488304500000000E+00 2 -0.8513771100000000E+01  0.1228432030000000E+01
 2
  0.3045532100000000E+00 1  0.9522841789999999E+01
  0.2326773000000000E+00 0
         # Potential name:  GTH-PADE-Q4  for symbol:  C
         # Potential read from the potential filename: GTH_POTENTIALS
       &END POTENTIAL
     &END KIND
     &KIND S
       BASIS_SET SZV-MOLOPT-SR-GTH
       ELEMENT S
       POTENTIAL GTH-PADE-q6
       &POTENTIAL
 2 4
  0.4200000000000000E+00 1 -0.6554491840000000E+01
 2
  0.3617566500000000E+00 2  0.7905302500000000E+01 -0.1731881300000000E+01
  0.4471698300000000E+01
  0.4052850200000000E+00 1  0.3866579000000000E+01
         # Potential name:  GTH-PADE-Q6  for symbol:  S
         # Potential read from the potential filename: GTH_POTENTIALS
       &END POTENTIAL
     &END KIND
     &KIND H
       BASIS_SET SZV-MOLOPT-SR-GTH
       ELEMENT H
       POTENTIAL GTH-PADE-q1
       &POTENTIAL
 1
  0.2000000000000000E+00 2 -0.4180236800000000E+01  0.7250748200000000E+00
 0
         # Potential name:  GTH-PADE-Q1  for symbol:  H
         # Potential read from the potential filename: GTH_POTENTIALS
       &END POTENTIAL
     &END KIND
     &TOPOLOGY
       COORD_FILE_NAME em.xyz
       COORD_FILE_FORMAT  XYZ
       NUMBER_OF_ATOMS  116
       MULTIPLE_UNIT_CELL  1 1 1
     &END TOPOLOGY
   &END SUBSYS
 &END FORCE_EVAL
