 # Version information for this restart file 
 # current date 2023-11-17 11:16:41.261
 # current working dir /mnt/lustre/a2fs-work2/work/e05/e05/cahart/postdoc/transport/cp2k-smeagol-examples/au-h2/cp2k-smeagol/geo_opt/kpoints-3-3-20_omp-2_ParallelOverKNum-3_contour-double_dynamic-14/0.5
 # Program compiled at                              Fri  3 Nov 17:12:21 GMT 2023
 # Program compiled on                                                      ln01
 # Program compiled for                                                    local
 # Source code revision number                                       git:3a6d0d5
 &GLOBAL
   EXTENDED_FFT_LENGTHS  T
   PRINT_LEVEL  MEDIUM
   PROJECT_NAME 0.5V
   RUN_TYPE  GEO_OPT
 &END GLOBAL
 &MOTION
   &GEO_OPT
     TYPE  MINIMIZATION
     OPTIMIZER  BFGS
     MAX_ITER  200
     MAX_DR     1.0000000000000000E-03
     MAX_FORCE     1.0000000000000000E-03
     RMS_DR     1.0000000000000000E-03
     RMS_FORCE     1.0000000000000000E-03
     STEP_START_VAL  32
   &END GEO_OPT
   &CONSTRAINT
     &FIXED_ATOMS
       LIST  1..54 69..113
     &END FIXED_ATOMS
   &END CONSTRAINT
   &PRINT
     &TRAJECTORY  ON
       UNIT angstrom
       FORMAT  XMOL
     &END TRAJECTORY
     &FORCES  SILENT
       UNIT hartree*bohr^-1
       FORMAT  XMOL
     &END FORCES
   &END PRINT
 &END MOTION
 &FORCE_EVAL
   METHOD  QS
   &DFT
     BASIS_SET_FILE_NAME BASIS_MOLOPT
     POTENTIAL_FILE_NAME GTH_POTENTIALS
     WFN_RESTART_FILE_NAME 0V-RESTART_0.kp
     &SCF
       MAX_SCF  500
       EPS_SCF     9.9999999999999995E-07
       SCF_GUESS  RESTART
       ADDED_MOS  100
       &SMEAR  T
         METHOD  FERMI_DIRAC
         ELECTRONIC_TEMPERATURE     3.0000000000000000E+02
       &END SMEAR
       &MIXING  T
         METHOD  BROYDEN_MIXING
         ALPHA     2.9999999999999999E-01
         NBUFFER  8
       &END MIXING
       &PRINT
         &RESTART  SILENT
           FILENAME RESTART_0
         &END RESTART
       &END PRINT
     &END SCF
     &QS
       EXTRAPOLATION  LINEAR_P
     &END QS
     &MGRID
       CUTOFF     6.0000000000000000E+02
       REL_CUTOFF     6.0000000000000000E+01
     &END MGRID
     &XC
       DENSITY_CUTOFF     1.0000000000000000E-10
       GRADIENT_CUTOFF     1.0000000000000000E-10
       TAU_CUTOFF     1.0000000000000000E-10
       &XC_FUNCTIONAL  NO_SHORTCUT
         &PBE  T
         &END PBE
       &END XC_FUNCTIONAL
     &END XC
     &POISSON
       PERIODIC  XYZ
     &END POISSON
     &KPOINTS
       SCHEME MONKHORST-PACK 3 3 1
       SYMMETRY  F
       FULL_GRID  T
       VERBOSE  T
       EPS_GEO     1.0000000000000000E-08
       PARALLEL_GROUP_SIZE  0
     &END KPOINTS
     &PRINT
       &E_DENSITY_CUBE  ON
         STRIDE  4 4 4
       &END E_DENSITY_CUBE
       &V_HARTREE_CUBE  SILENT
         STRIDE  4 4 4
       &END V_HARTREE_CUBE
       &HIRSHFELD  SILENT
         SHAPE_FUNCTION  DENSITY
       &END HIRSHFELD
     &END PRINT
     &SMEAGOL  T
       PROJECT_NAME 0.5V
       EMTRANSPORT  T
       TRCOEFFICIENTS  T
       NENERGREAL  64
       NIVPOINTS  0
       NTRANSMPOINTS  800
       DELTA     1.0000000000000000E-04
       VINITIAL     3.6749325402613088E-02
       VFINAL     3.6749325402613088E-02
       ENERGLOWESTBOUND    -7.3498650805226173E+00
       INITTRANSMRANGE    -7.3498650805226173E-01
       FINALTRANSMRANGE     7.3498650805226173E-01
       TRC.LEADSDOS  T
       TRC.EMDOS  T
       EM.PARALLELOVERKNUM  3
       HARTREELEADSBOTTOM    -8.0435347681615321E-01
     &END SMEAGOL
   &END DFT
   &SUBSYS
     &CELL
       A     8.8671199999999999E+00    0.0000000000000000E+00    0.0000000000000000E+00
       B     0.0000000000000000E+00    8.8671199999999999E+00    0.0000000000000000E+00
       C     0.0000000000000000E+00    0.0000000000000000E+00    3.8719999999999999E+01
       PERIODIC  XYZ
       MULTIPLE_UNIT_CELL  1 1 1
     &END CELL
     &COORD
Au    1.7869999999999999E+00    1.2809999999999999E+00    0.0000000000000000E+00
Au    3.0900000000000000E-01    2.7589999999999999E+00    2.0899999999999999E+00
Au    1.7869999999999999E+00    1.2809999999999999E+00    4.1799999999999997E+00
Au    3.0900000000000000E-01    2.7589999999999999E+00    6.2699999999999996E+00
Au    4.7430000000000003E+00    1.2809999999999999E+00    0.0000000000000000E+00
Au    3.2650000000000001E+00    2.7589999999999999E+00    2.0899999999999999E+00
Au    4.7430000000000003E+00    1.2809999999999999E+00    4.1799999999999997E+00
Au    3.2650000000000001E+00    2.7589999999999999E+00    6.2699999999999996E+00
Au    7.6989999999999998E+00    1.2809999999999999E+00    0.0000000000000000E+00
Au    6.2210000000000010E+00    2.7589999999999999E+00    2.0899999999999999E+00
Au    7.6989999999999998E+00    1.2809999999999999E+00    4.1799999999999997E+00
Au    6.2210000000000010E+00    2.7589999999999999E+00    6.2699999999999996E+00
Au    1.7869999999999999E+00    4.2359999999999998E+00    0.0000000000000000E+00
Au    3.0900000000000000E-01    5.7140000000000004E+00    2.0899999999999999E+00
Au    1.7869999999999999E+00    4.2359999999999998E+00    4.1799999999999997E+00
Au    3.0900000000000000E-01    5.7140000000000004E+00    6.2699999999999996E+00
Au    4.7430000000000003E+00    4.2359999999999998E+00    0.0000000000000000E+00
Au    3.2650000000000001E+00    5.7140000000000004E+00    2.0899999999999999E+00
Au    4.7430000000000003E+00    4.2359999999999998E+00    4.1799999999999997E+00
Au    3.2650000000000001E+00    5.7140000000000004E+00    6.2699999999999996E+00
Au    7.6989999999999998E+00    4.2359999999999998E+00    0.0000000000000000E+00
Au    6.2210000000000010E+00    5.7140000000000004E+00    2.0899999999999999E+00
Au    7.6989999999999998E+00    4.2359999999999998E+00    4.1799999999999997E+00
Au    6.2210000000000010E+00    5.7140000000000004E+00    6.2699999999999996E+00
Au    1.7869999999999999E+00    7.1920000000000002E+00    0.0000000000000000E+00
Au    3.0900000000000000E-01    8.6699999999999999E+00    2.0899999999999999E+00
Au    1.7869999999999999E+00    7.1920000000000002E+00    4.1799999999999997E+00
Au    3.0900000000000000E-01    8.6699999999999999E+00    6.2699999999999996E+00
Au    4.7430000000000003E+00    7.1920000000000002E+00    0.0000000000000000E+00
Au    3.2650000000000001E+00    8.6699999999999999E+00    2.0899999999999999E+00
Au    4.7430000000000003E+00    7.1920000000000002E+00    4.1799999999999997E+00
Au    3.2650000000000001E+00    8.6699999999999999E+00    6.2699999999999996E+00
Au    7.6989999999999998E+00    7.1920000000000002E+00    0.0000000000000000E+00
Au    6.2210000000000010E+00    8.6699999999999999E+00    2.0899999999999999E+00
Au    7.6989999999999998E+00    7.1920000000000002E+00    4.1799999999999997E+00
Au    6.2210000000000010E+00    8.6699999999999999E+00    6.2699999999999996E+00
Au    1.7869999999999999E+00    1.2809999999999999E+00    8.3599999999999994E+00
Au    1.7869999999999999E+00    4.2359999999999998E+00    8.3599999999999994E+00
Au    1.7869999999999999E+00    7.1920000000000002E+00    8.3599999999999994E+00
Au    4.7430000000000003E+00    1.2809999999999999E+00    8.3599999999999994E+00
Au    4.7430000000000003E+00    4.2359999999999998E+00    8.3599999999999994E+00
Au    4.7430000000000003E+00    7.1920000000000002E+00    8.3599999999999994E+00
Au    7.6989999999999998E+00    1.2809999999999999E+00    8.3599999999999994E+00
Au    7.6989999999999998E+00    4.2359999999999998E+00    8.3599999999999994E+00
Au    7.6989999999999998E+00    7.1920000000000002E+00    8.3599999999999994E+00
Au    3.0900000000000000E-01    2.7589999999999999E+00    1.0449999999999999E+01
Au    3.0900000000000000E-01    5.7140000000000004E+00    1.0449999999999999E+01
Au    3.0900000000000000E-01    8.6699999999999999E+00    1.0449999999999999E+01
Au    3.2650000000000001E+00    2.7589999999999999E+00    1.0449999999999999E+01
Au    3.2650000000000001E+00    5.7140000000000004E+00    1.0449999999999999E+01
Au    3.2650000000000001E+00    8.6699999999999999E+00    1.0449999999999999E+01
Au    6.2210000000000010E+00    2.7589999999999999E+00    1.0449999999999999E+01
Au    6.2210000000000010E+00    5.7140000000000004E+00    1.0449999999999999E+01
Au    6.2210000000000010E+00    8.6699999999999999E+00    1.0449999999999999E+01
Au    1.7451059764208559E+00    4.1947045122654858E+00    1.2467008371328699E+01
Au    1.7399629264699843E+00    7.2328462993832217E+00    1.2465030003371325E+01
Au    4.7837232015463389E+00    4.1893498782117717E+00    1.2465568173950945E+01
Au    4.7910916376117774E+00    7.2402670698882234E+00    1.2466301069320551E+01
Au    3.2665813038253635E+00    5.7165565568911898E+00    1.4419518979494237E+01
Au    3.6840207884413920E+00    6.1152489313535945E+00    1.7065672740211557E+01
H    3.3361651487859660E+00    5.7830946390198825E+00    1.8836637668201181E+01
H    3.4020066349717197E+00    5.8458464837008242E+00    1.9718030738981358E+01
Au    3.2735345130782858E+00    5.7235723974377093E+00    2.1548911974264776E+01
Au    3.2661428760941233E+00    5.7157950221981215E+00    2.4251304553401607E+01
Au    1.7496020969879704E+00    4.1990008911059844E+00    2.6248063594235198E+01
Au    1.7492266669505496E+00    7.2303110057015454E+00    2.6249187424383852E+01
Au    4.7811697638300465E+00    4.1986601601652902E+00    2.6248713448518590E+01
Au    4.7818656957087393E+00    7.2309860010747427E+00    2.6249852043115975E+01
Au    3.0900000000000000E-01    2.7589999999999999E+00    2.8270000000000000E+01
Au    3.0900000000000000E-01    5.7140000000000004E+00    2.8270000000000000E+01
Au    3.0900000000000000E-01    8.6699999999999999E+00    2.8270000000000000E+01
Au    3.2650000000000001E+00    2.7589999999999999E+00    2.8270000000000000E+01
Au    3.2650000000000001E+00    5.7140000000000004E+00    2.8270000000000000E+01
Au    3.2650000000000001E+00    8.6699999999999999E+00    2.8270000000000000E+01
Au    6.2210000000000010E+00    2.7589999999999999E+00    2.8270000000000000E+01
Au    6.2210000000000010E+00    5.7140000000000004E+00    2.8270000000000000E+01
Au    6.2210000000000010E+00    8.6699999999999999E+00    2.8270000000000000E+01
Au    1.7869999999999999E+00    1.2809999999999999E+00    3.0359999999999999E+01
Au    3.0900000000000000E-01    2.7589999999999999E+00    3.2450000000000003E+01
Au    1.7869999999999999E+00    1.2809999999999999E+00    3.4539999999999999E+01
Au    3.0900000000000000E-01    2.7589999999999999E+00    3.6630000000000010E+01
Au    4.7430000000000003E+00    1.2809999999999999E+00    3.0359999999999999E+01
Au    3.2650000000000001E+00    2.7589999999999999E+00    3.2450000000000003E+01
Au    4.7430000000000003E+00    1.2809999999999999E+00    3.4539999999999999E+01
Au    3.2650000000000001E+00    2.7589999999999999E+00    3.6630000000000010E+01
Au    7.6989999999999998E+00    1.2809999999999999E+00    3.0359999999999999E+01
Au    6.2210000000000010E+00    2.7589999999999999E+00    3.2450000000000003E+01
Au    7.6989999999999998E+00    1.2809999999999999E+00    3.4539999999999999E+01
Au    6.2210000000000010E+00    2.7589999999999999E+00    3.6630000000000010E+01
Au    1.7869999999999999E+00    4.2359999999999998E+00    3.0359999999999999E+01
Au    3.0900000000000000E-01    5.7140000000000004E+00    3.2450000000000003E+01
Au    1.7869999999999999E+00    4.2359999999999998E+00    3.4539999999999999E+01
Au    3.0900000000000000E-01    5.7140000000000004E+00    3.6630000000000010E+01
Au    4.7430000000000003E+00    4.2359999999999998E+00    3.0359999999999999E+01
Au    3.2650000000000001E+00    5.7140000000000004E+00    3.2450000000000003E+01
Au    4.7430000000000003E+00    4.2359999999999998E+00    3.4539999999999999E+01
Au    3.2650000000000001E+00    5.7140000000000004E+00    3.6630000000000010E+01
Au    7.6989999999999998E+00    4.2359999999999998E+00    3.0359999999999999E+01
Au    6.2210000000000010E+00    5.7140000000000004E+00    3.2450000000000003E+01
Au    7.6989999999999998E+00    4.2359999999999998E+00    3.4539999999999999E+01
Au    6.2210000000000010E+00    5.7140000000000004E+00    3.6630000000000010E+01
Au    1.7869999999999999E+00    7.1920000000000002E+00    3.0359999999999999E+01
Au    3.0900000000000000E-01    8.6699999999999999E+00    3.2450000000000003E+01
Au    1.7869999999999999E+00    7.1920000000000002E+00    3.4539999999999999E+01
Au    3.0900000000000000E-01    8.6699999999999999E+00    3.6630000000000010E+01
Au    4.7430000000000003E+00    7.1920000000000002E+00    3.0359999999999999E+01
Au    3.2650000000000001E+00    8.6699999999999999E+00    3.2450000000000003E+01
Au    4.7430000000000003E+00    7.1920000000000002E+00    3.4539999999999999E+01
Au    3.2650000000000001E+00    8.6699999999999999E+00    3.6630000000000010E+01
Au    7.6989999999999998E+00    7.1920000000000002E+00    3.0359999999999999E+01
Au    6.2210000000000010E+00    8.6699999999999999E+00    3.2450000000000003E+01
Au    7.6989999999999998E+00    7.1920000000000002E+00    3.4539999999999999E+01
Au    6.2210000000000010E+00    8.6699999999999999E+00    3.6630000000000010E+01
     &END COORD
     &KIND Au
       BASIS_SET SZV-MOLOPT-SR-GTH
       POTENTIAL GTH-PBE-q11
       &POTENTIAL
 1 0 10
  0.5900000000000000E+00 1  0.1051717881000000E+02
 3
  0.5438473300000000E+00 2  0.5786811030000000E+01 -0.2250679660000000E+01
  0.2905614950000000E+01
  0.6091729800000000E+00 2  0.4284048730000000E+01 -0.4071285200000000E+01
  0.4817209620000000E+01
  0.4373092200000000E+00 2 -0.7403281240000000E+01  0.3010193070000000E+01
 -0.3413238110000000E+01
         # Potential name:  GTH-PBE-Q11  for symbol:  AU
         # Potential read from the potential filename: GTH_POTENTIALS
       &END POTENTIAL
     &END KIND
     &KIND H
       BASIS_SET DZVP-MOLOPT-SR-GTH
       ELEMENT H
       POTENTIAL GTH-PBE-q1
       &POTENTIAL
 1
  0.2000000000000000E+00 2 -0.4178900440000000E+01  0.7244633100000000E+00
 0
         # Potential name:  GTH-PBE-Q1  for symbol:  H
         # Potential read from the potential filename: GTH_POTENTIALS
       &END POTENTIAL
     &END KIND
     &TOPOLOGY
       COORD_FILE_NAME em.xyz
       COORD_FILE_FORMAT  XYZ
       NUMBER_OF_ATOMS  113
       MULTIPLE_UNIT_CELL  1 1 1
     &END TOPOLOGY
   &END SUBSYS
   &PRINT
     &FORCES  SILENT
     &END FORCES
   &END PRINT
 &END FORCE_EVAL
