
#FDF: Opened INPUT_TMP            for input. Unit: 12

fdf-debug              0     # Default value
SystemName     IV                                                                                                                                  
SystemLabel     IV                                                                                                                                  
alloc_report_level              0     # Default value
user-basis              F     # Default value
user-basis-netcdf              F     # Default value
PAO.BasisSize     standard            # Default value
PAO.BasisType     split                                                                                                                               
Number_of_species                        7

%block ChemicalSpeciesLabel                                                    
1 79 Au_bulk                                                                   
2 7 N                                                                          
3 6  C                                                                         
4 1  H                                                                         
5 79 Au                                                                        
6 79 Au_surf                                                                   
7 79 Au_tip                                                                    
%endblock ChemicalSpeciesLabel                                                 
 

%block PAO.BasisSizes                                                          
C DZP                                                                          
H DZP                                                                          
N DZP                                                                          
Au_surf DZP                                                                    
%endblock PAO.BasisSizes                                                       
 

%block PAO.Basis                                                               
  Au_bulk  2                                                                   
n=6  0  1                                                                      
6.500                                                                          
1.00                                                                           
n=5  2  1                                                                      
5.850                                                                          
1.00                                                                           
  Au  2                                                                        
n=6  0  1                                                                      
6.500                                                                          
1.00                                                                           
n=5  2  1                                                                      
5.850                                                                          
1.00                                                                           
  Au_tip      2                                                                
 n=6   0   2 P   1                                                             
   3.0      3.0                                                                
   1.000      1.000                                                            
 n=5   2   2                                                                   
   3.0     3.0                                                                 
   1.000      1.000                                                            
%endblock PAO.Basis                                                            
 
PS.SIC              F     # Default value
ProjectionMethod     Zeta     # Default value
SIC.Flavour     Pseudo     # Default value
SIC.Lambda         0.5000000000         # Default value
SIC.NoRelaxation              F     # Default value
SIC.Rot_Inv              F     # Default value
WriteProjections              T     # Default value
ProjectionInSCF              F     # Default value
SIC.PopKgridFactor              1     # Default value
SIC.PopDMConv         0.1000000000E-03     # Default value
SIC.PopSmatSparsity         0.1000000000E-03     # Default value
SIC.ProjectionMode     SaveTime     # Default value
SIC.ProjectionType     Dual     # Default value
SIC.Npop              1     # Default value
SpinOrbit              F     # Default value
SpinOrbit              F     # Default value
xc.functional     LDA                                                                                                                                 
xc.authors     CA                                                                                                                                  
PAO.EnergyShift         0.2000000000E-01 Ry     # Default value
PAO.SplitNorm         0.1500000000         # Default value
PAO.SplitNorm         0.1500000000         # Default value
SpinOrbit              F     # Default value
SpinOrbit              F     # Default value
xc.functional     LDA                                                                                                                                 
xc.authors     CA                                                                                                                                  
PAO.EnergyShift         0.2000000000E-01 Ry     # Default value
PAO.SplitNorm         0.1500000000         # Default value
PAO.SplitNorm         0.1500000000         # Default value
SpinOrbit              F     # Default value
xc.functional     LDA                                                                                                                                 
xc.authors     CA                                                                                                                                  
PAO.EnergyShift         0.2000000000E-01 Ry     # Default value
PAO.SplitNorm         0.1500000000         # Default value
PAO.SplitNorm         0.1500000000         # Default value
SpinOrbit              F     # Default value
xc.functional     LDA                                                                                                                                 
xc.authors     CA                                                                                                                                  
PAO.EnergyShift         0.2000000000E-01 Ry     # Default value
PAO.SplitNorm         0.1500000000         # Default value
PAO.SplitNorm         0.1500000000         # Default value
SpinOrbit              F     # Default value
SpinOrbit              F     # Default value
xc.functional     LDA                                                                                                                                 
xc.authors     CA                                                                                                                                  
PAO.EnergyShift         0.2000000000E-01 Ry     # Default value
PAO.SplitNorm         0.1500000000         # Default value
PAO.SplitNorm         0.1500000000         # Default value
SpinOrbit              F     # Default value
SpinOrbit              F     # Default value
xc.functional     LDA                                                                                                                                 
xc.authors     CA                                                                                                                                  
PAO.EnergyShift         0.2000000000E-01 Ry     # Default value
PAO.SplitNorm         0.1500000000         # Default value
PAO.SplitNorm         0.1500000000         # Default value
SpinOrbit              F     # Default value
SpinOrbit              F     # Default value
xc.functional     LDA                                                                                                                                 
xc.authors     CA                                                                                                                                  
PAO.EnergyShift         0.2000000000E-01 Ry     # Default value
PAO.SplitNorm         0.1500000000         # Default value
PAO.SplitNorm         0.1500000000         # Default value
PAO.BasisType     split                                                                                                                               
CDFT              F     # Default value
CDFT.MaxIter              1     # Default value
LatticeConstant          1.889726878           Bohr
# Above item originally: LatticeConstant          1.000000000     Ang       

%block LatticeVectors                                                          
   14.582     0.000   0.000        1                                           
  0.000    8.866     0.000   1                                                 
  0.000   0.000    35.532  1                                                   
%endblock LatticeVectors                                                       
 

%block LatticeVectors                                                          
   14.582     0.000   0.000        1                                           
  0.000    8.866     0.000   1                                                 
  0.000   0.000    35.532  1                                                   
%endblock LatticeVectors                                                       
 
AtomicCoordinatesFormat     Ang                                                                                                                                 
NumberOfAtoms                      183

%block AtomicCoordinatesAndAtomicSpecies                                       
0.0 0.0 0.0 1 Au_bulk                                                          
0.0 2.955 0.0 1 Au_bulk                                                        
0.0 5.911 0.0 1 Au_bulk                                                        
2.956 0.0 0.0 1 Au_bulk                                                        
2.956 2.955 0.0 1 Au_bulk                                                      
2.956 5.911 0.0 1 Au_bulk                                                      
5.912 0.0 0.0 1 Au_bulk                                                        
5.912 2.955 0.0 1 Au_bulk                                                      
5.912 5.911 0.0 1 Au_bulk                                                      
8.67 0.0 0.0 1 Au_bulk                                                         
8.67 2.955 0.0 1 Au_bulk                                                       
8.67 5.911 0.0 1 Au_bulk                                                       
11.626 0.0 0.0 1 Au_bulk                                                       
11.626 2.955 0.0 1 Au_bulk                                                     
11.626 5.911 0.0 1 Au_bulk                                                     
1.478 1.478 2.09 1 Au_bulk                                                     
1.478 4.433 2.09 1 Au_bulk                                                     
1.478 7.389 2.09 1 Au_bulk                                                     
4.434 1.478 2.09 1 Au_bulk                                                     
4.434 4.433 2.09 1 Au_bulk                                                     
4.434 7.389 2.09 1 Au_bulk                                                     
7.192 1.478 2.09 1 Au_bulk                                                     
7.192 4.433 2.09 1 Au_bulk                                                     
7.192 7.389 2.09 1 Au_bulk                                                     
10.148 1.478 2.09 1 Au_bulk                                                    
10.148 4.433 2.09 1 Au_bulk                                                    
10.148 7.389 2.09 1 Au_bulk                                                    
13.104 1.478 2.09 1 Au_bulk                                                    
13.104 4.433 2.09 1 Au_bulk                                                    
13.104 7.389 2.09 1 Au_bulk                                                    
0.0 0.0 4.18 1 Au_bulk                                                         
0.0 2.955 4.18 1 Au_bulk                                                       
0.0 5.911 4.18 1 Au_bulk                                                       
2.956 0.0 4.18 1 Au_bulk                                                       
2.956 2.955 4.18 1 Au_bulk                                                     
2.956 5.911 4.18 1 Au_bulk                                                     
5.912 0.0 4.18 1 Au_bulk                                                       
5.912 2.955 4.18 1 Au_bulk                                                     
5.912 5.911 4.18 1 Au_bulk                                                     
8.67 0.0 4.18 1 Au_bulk                                                        
8.67 2.955 4.18 1 Au_bulk                                                      
8.67 5.911 4.18 1 Au_bulk                                                      
11.626 0.0 4.18 1 Au_bulk                                                      
11.626 2.955 4.18 1 Au_bulk                                                    
11.626 5.911 4.18 1 Au_bulk                                                    
1.478 1.478 6.27 1 Au_bulk                                                     
1.478 4.433 6.27 1 Au_bulk                                                     
1.478 7.389 6.27 1 Au_bulk                                                     
4.434 1.478 6.27 1 Au_bulk                                                     
4.434 4.433 6.27 1 Au_bulk                                                     
4.434 7.389 6.27 1 Au_bulk                                                     
7.192 1.478 6.27 1 Au_bulk                                                     
7.192 4.433 6.27 1 Au_bulk                                                     
7.192 7.389 6.27 1 Au_bulk                                                     
10.148 1.478 6.27 1 Au_bulk                                                    
10.148 4.433 6.27 1 Au_bulk                                                    
10.148 7.389 6.27 1 Au_bulk                                                    
13.104 1.478 6.27 1 Au_bulk                                                    
13.104 4.433 6.27 1 Au_bulk                                                    
13.104 7.389 6.27 1 Au_bulk                                                    
0.0 0.0 8.36 5 Au                                                              
0.0 2.955 8.36 5 Au                                                            
0.0 5.911 8.36 5 Au                                                            
2.956 0.0 8.36 5 Au                                                            
2.956 2.955 8.36 5 Au                                                          
2.956 5.911 8.36 5 Au                                                          
5.912 0.0 8.36 5 Au                                                            
5.912 2.955 8.36 5 Au                                                          
5.912 5.911 8.36 5 Au                                                          
8.67 0.0 8.36 5 Au                                                             
8.67 2.955 8.36 5 Au                                                           
8.67 5.911 8.36 5 Au                                                           
11.626 0.0 8.36 5 Au                                                           
11.626 2.955 8.36 5 Au                                                         
11.626 5.911 8.36 5 Au                                                         
1.478 1.478 10.45 6 Au_surf                                                    
1.478 4.433 10.45 6 Au_surf                                                    
1.478 7.389 10.45 6 Au_surf                                                    
4.434 1.478 10.45 6 Au_surf                                                    
4.434 4.433 10.45 6 Au_surf                                                    
4.434 7.389 10.45 6 Au_surf                                                    
7.192 1.478 10.45 6 Au_surf                                                    
7.192 4.433 10.45 6 Au_surf                                                    
7.192 7.389 10.45 6 Au_surf                                                    
10.148 1.478 10.45 6 Au_surf                                                   
10.148 4.433 10.45 6 Au_surf                                                   
10.148 7.389 10.45 6 Au_surf                                                   
13.104 1.478 10.45 6 Au_surf                                                   
13.104 4.433 10.45 6 Au_surf                                                   
13.104 7.389 10.45 6 Au_surf                                                   
4.855 5.911 12.032 2 N                                                         
9.528 5.913 12.034 2 N                                                         
7.192 5.934 12.04 2 N                                                          
10.3492 5.9231 12.6403 4 H                                                     
4.053 5.9162 12.6659 4 H                                                       
8.37 5.9345 12.7075 3 C                                                        
5.9985 5.9336 12.7551 3 C                                                      
8.302 5.9649 14.073 2 N                                                        
5.9283 5.9647 14.0992 2 N                                                      
9.1476 5.9243 14.638 4 H                                                       
7.0701 5.9964 14.8285 3 C                                                      
7.1637 5.9306 16.1178 2 N                                                      
7.2673 6.7195 16.742 4 H                                                       
7.312 5.934 21.043 7 Au_tip                                                    
5.813 7.434 22.992 7 Au_tip                                                    
8.813 4.434 22.992 7 Au_tip                                                    
5.813 4.433 22.992 7 Au_tip                                                    
8.813 7.434 22.992 7 Au_tip                                                    
1.478 1.478 25.082 5 Au                                                        
1.478 4.433 25.082 5 Au                                                        
1.478 7.389 25.082 5 Au                                                        
4.434 1.478 25.082 5 Au                                                        
4.434 4.433 25.082 5 Au                                                        
4.434 7.389 25.082 5 Au                                                        
7.192 1.478 25.082 5 Au                                                        
7.192 4.433 25.082 5 Au                                                        
7.192 7.389 25.082 5 Au                                                        
10.148 1.478 25.082 5 Au                                                       
10.148 4.433 25.082 5 Au                                                       
10.148 7.389 25.082 5 Au                                                       
13.104 1.478 25.082 5 Au                                                       
13.104 4.433 25.082 5 Au                                                       
13.104 7.389 25.082 5 Au                                                       
0.0 0.0 27.172 1 Au_bulk                                                       
0.0 2.955 27.172 1 Au_bulk                                                     
0.0 5.911 27.172 1 Au_bulk                                                     
2.956 0.0 27.172 1 Au_bulk                                                     
2.956 2.955 27.172 1 Au_bulk                                                   
2.956 5.911 27.172 1 Au_bulk                                                   
5.912 0.0 27.172 1 Au_bulk                                                     
5.912 2.955 27.172 1 Au_bulk                                                   
5.912 5.911 27.172 1 Au_bulk                                                   
8.67 0.0 27.172 1 Au_bulk                                                      
8.67 2.955 27.172 1 Au_bulk                                                    
8.67 5.911 27.172 1 Au_bulk                                                    
11.626 0.0 27.172 1 Au_bulk                                                    
11.626 2.955 27.172 1 Au_bulk                                                  
11.626 5.911 27.172 1 Au_bulk                                                  
1.478 1.478 29.262 1 Au_bulk                                                   
1.478 4.433 29.262 1 Au_bulk                                                   
1.478 7.389 29.262 1 Au_bulk                                                   
4.434 1.478 29.262 1 Au_bulk                                                   
4.434 4.433 29.262 1 Au_bulk                                                   
4.434 7.389 29.262 1 Au_bulk                                                   
7.192 1.478 29.262 1 Au_bulk                                                   
7.192 4.433 29.262 1 Au_bulk                                                   
7.192 7.389 29.262 1 Au_bulk                                                   
10.148 1.478 29.262 1 Au_bulk                                                  
10.148 4.433 29.262 1 Au_bulk                                                  
10.148 7.389 29.262 1 Au_bulk                                                  
13.104 1.478 29.262 1 Au_bulk                                                  
13.104 4.433 29.262 1 Au_bulk                                                  
13.104 7.389 29.262 1 Au_bulk                                                  
0.0 0.0 31.352 1 Au_bulk                                                       
0.0 2.955 31.352 1 Au_bulk                                                     
0.0 5.911 31.352 1 Au_bulk                                                     
2.956 0.0 31.352 1 Au_bulk                                                     
2.956 2.955 31.352 1 Au_bulk                                                   
2.956 5.911 31.352 1 Au_bulk                                                   
5.912 0.0 31.352 1 Au_bulk                                                     
5.912 2.955 31.352 1 Au_bulk                                                   
5.912 5.911 31.352 1 Au_bulk                                                   
8.67 0.0 31.352 1 Au_bulk                                                      
8.67 2.955 31.352 1 Au_bulk                                                    
8.67 5.911 31.352 1 Au_bulk                                                    
11.626 0.0 31.352 1 Au_bulk                                                    
11.626 2.955 31.352 1 Au_bulk                                                  
11.626 5.911 31.352 1 Au_bulk                                                  
1.478 1.478 33.442 1 Au_bulk                                                   
1.478 4.433 33.442 1 Au_bulk                                                   
1.478 7.389 33.442 1 Au_bulk                                                   
4.434 1.478 33.442 1 Au_bulk                                                   
4.434 4.433 33.442 1 Au_bulk                                                   
4.434 7.389 33.442 1 Au_bulk                                                   
7.192 1.478 33.442 1 Au_bulk                                                   
7.192 4.433 33.442 1 Au_bulk                                                   
7.192 7.389 33.442 1 Au_bulk                                                   
10.148 1.478 33.442 1 Au_bulk                                                  
10.148 4.433 33.442 1 Au_bulk                                                  
10.148 7.389 33.442 1 Au_bulk                                                  
13.104 1.478 33.442 1 Au_bulk                                                  
13.104 4.433 33.442 1 Au_bulk                                                  
13.104 7.389 33.442 1 Au_bulk                                                  
%endblock AtomicCoordinatesAndAtomicSpecies 	                                  
 
SpinPolarized              F
NonCollinearSpin              F
SpinOrbit              F     # Default value
LongOutput              F     # Default value
NumberOfSpecies                        7
WriteDenchar              F     # Default value
WriteMullikenPop                        0
WriteHamiltonPop              0     # Default value
MeshCutoff          200.0000000             Ry
# Above item originally: MeshCutoff          200.0000000     Ry        
NetCharge          0.000000000         # Default value
MaxSCFIterations                      500
DM.NumberPulay                        4
DM.MixSCF1              T
DM.PulayOnFile              F
DM.MixingWeight         0.1000000000    
DM.NumberKick              0     # Default value
DM.KickMixingWeight         0.5000000000         # Default value
DM.Tolerance         0.1000000000E-03
UseSaveData              F     # Default value
DM.UseSaveDM              T
NeglNonOverlapInt              F
SolutionMethod     diagon                                                                                                                              
DiagMemory          2.000000000         # Default value
DiagScale          1.500000000         # Default value
TryMemoryIncrease              T     # Default value
ElectronicTemperature         0.1900069269E-02         Ry
# Above item originally: ElectronicTemperature          300.0000000     K         
FixSpin              F     # Default value
ON.MaxNumIter           1000     # Default value
ON.etol         0.1000000000E-07     # Default value
ON.eta          0.000000000     Ry     # Default value
On.RcLWF          9.500000000     Bohr     # Default value
UseSaveData              F     # Default value
ON.UseSaveLWF              F     # Default value
ON.functional     kim               # Default value
ON.ChemicalPotential              F     # Default value
ON.ChemicalPotentialUse              F     # Default value
ON.ChemicalPotentialRc          9.500000000     Bohr     # Default value
ON.ChemicalPotentialTemperature         0.5000000075E-01 Ry     # Default value
ON.ChemicalPotentialOrder            100     # Default value
MD.VariableCell              F     # Default value
MD.TypeOfRun     cg                         # Default value
MD.LengthTimeStep          1.000000000     fs     # Default value
UseSaveData              F     # Default value
MD.UseSaveCG              F     # Default value
MD.NumCGsteps              0     # Default value
MD.NumNEBsteps              1     # Default value
MD.MaxCGDispl         0.2000000000     Bohr     # Default value
MD.MaxForceTol         0.1555740000E-02 Ry/Bohr     # Default value
MD.MaxStressTol         0.6797730000E-04 Ry/Bohr**3     # Default value
MD.InitialTimeStep              1     # Default value
MD.FinalTimeStep              1     # Default value
MD.Quench              F     # Default value
MD.InitialTemperature          0.000000000     K     # Default value
MD.TargetTemperature          0.000000000     K     # Default value
MD.TargetPressure          0.000000000     Ry/Bohr**3     # Default value
MD.NoseMass          100.0000000     Ry*fs**2     # Default value
MD.ParrinelloRahmanMass          100.0000000     Ry*fs**2     # Default value
MD.AnnealOption     TemperatureAndPressure     # Default value
MD.TauRelax          100.0000000     fs     # Default value
MD.BulkModulus          100.0000000         # Default value
COOP.Write              F     # Default value
MD.FCDispl         0.4000000000E-01 Bohr     # Default value
MD.Timing              F     # Default value
MD.FCAcousticSumRule              T     # Default value
MD.FCIR              F     # Default value
MD.FCEigenVectors              F     # Default value
MD.FCRead              F     # Default value
MD.FCFirst              1     # Default value
MD.FCLast            183     # Default value
MD.FCAtomRestart              1     # Default value
MD.FCAxisRestart              1     # Default value
Harris_functional              F     # Default value
WriteEDM              F     # Default value
WriteKpoints              F     # Default value
WriteForces              T
WriteDM              T     # Default value
WriteEigenvalues              F     # Default value
WriteBands              F     # Default value
WriteKbands              F     # Default value
WriteCoorStep              F     # Default value
WriteCoorInitial              T     # Default value
WriteMDhistory              F     # Default value
WriteMDXmol              T     # Default value
UseSaveData              F     # Default value
MD.UseSaveXV              F     # Default value
MD.UseSaveNEB              F     # Default value
NEB.SkipEdge              F     # Default value
SaveHS              F     # Default value
FixAuxillaryCell              F     # Default value
ReInitialiseDM              F     # Default value
SignatureRecords              F     # Default value
MullikenInSCF              F     # Default value
BuildSuperCell              F     # Default value
ReadKPIN              F     # Default value
TimeReversal              T     # Default value
WriteSpinSCF              F     # Default value
WriteSpinMulliken              F     # Default value
WarningMinimumAtomicDistance          1.000000000     Bohr     # Default value
STT.Calculation              F     # Default value