SystemName  Au leads
SystemLabel Au_leads
#********************************************************
# Specification of atomic species and positions
#********************************************************
# Chemical species
NumberOfSpecies 1
%block ChemicalSpeciesLabel
 1 79 Au
%endblock ChemicalSpeciesLabel
# UNIT CELL
LatticeConstant       1.0 Ang
%block LatticeVectors
   4.3289600000 -7.4979700000  0.0000000000
   4.3289600000  7.4979700000  0.0000000000
   0.0000000000  0.0000000000  4.7127720000
%endblock LatticeVectors
# ATOMIC POSITIONS
NumberOfAtoms    18
AtomicCoordinatesFormat Ang
%block AtomicCoordinatesAndAtomicSpecies
   1.4429860000  0.8331080000  0.0000000000 1
   2.8859710000 -1.6662140000  0.0000000000 1
   4.3289560000 -4.1655360000  0.0000000000 1
   2.8859710000  3.3324300000  0.0000000000 1
   4.3289560000  0.8331080000  0.0000000000 1
   5.7719410000 -1.6662140000  0.0000000000 1
   4.3289560000  5.8317520000  0.0000000000 1
   5.7719410000  3.3324300000  0.0000000000 1
   7.2149260000  0.8331080000  0.0000000000 1
   1.4429860000 -0.8331080000  2.3563860000 1
   2.8859710000 -3.3324300000  2.3563860000 1
   4.3289560000 -5.8317520000  2.3563860000 1
   2.8859710000  1.6662140000  2.3563860000 1
   4.3289560000 -0.8331080000  2.3563860000 1
   5.7719410000 -3.3324300000  2.3563860000 1
   4.3289560000  4.1655360000  2.3563860000 1
   5.7719410000  1.6662140000  2.3563860000 1
   7.2149260000 -0.8331080000  2.3563860000 1
%endblock AtomicCoordinatesAndAtomicSpecies
#********************************************************
# DFT options
#********************************************************
# Basis set variables
PAO.BasisType split
%block PAO.Basis
  Au  1
n=6  0  1  P 0 E 20 4
  5.5
%endblock PAO.Basis
%block PS.lmax
 Au   1
%endblock PS.lmax
# k-mesh for Brillouin zone integration
%block kgrid_Monkhorst_Pack
  2   0   0     0.0
  0   2   0     0.0
  0   0   31     0.0
%endblock kgrid_Monkhorst_Pack
# General variables
ElectronicTemperature  300 K
MeshCutoff             200. Ry
xc.functional          LDA           # Exchange-correlation functional
xc.authors             CA
SpinPolarized          F
# SCF variables
DM.MixSCF1            T
MaxSCFIterations      1000           # Maximum number of SCF iter
DM.MixingWeight       0.3           # New DM amount for next SCF cycle
DM.Tolerance          1.0d-6         # Tolerance in maximum difference
DM.UseSaveDM          true           # to use continuation files
DM.NumberPulay        5
# Output variables
WriteMullikenPop                0
WriteBands                      F
SaveRho                         T
SaveElectrostaticPotential      T
SaveTotalPotential              F
WriteCoorXmol                   T
WriteMDXmol                     T
#********************************************************
# SMEAGOL options
#********************************************************
#
InitTransport           T
#construct the leads files
BulkTransport			T
BulkLeads			    LR
