 # Version information for this restart file 
 # current date 2023-02-22 11:31:12.081
 # current working dir /work4/scd/scarf1157/work/testing/cp2k-smeagol/bdt/cp2k/hollow-site/transport-cp2k/5-4/geometry-ordered/3x3-4/sz/bulk_layers-4/geo_opt/dzvp/Au-S-2.75_dft_cg
 # Program compiled at                              Thu 26 Jan 13:39:53 GMT 2023
 # Program compiled on                                     cn1108.scarf.rl.ac.uk
 # Program compiled for                                                    local
 # Source code revision number                                       git:1ef701d
 &GLOBAL
   EXTENDED_FFT_LENGTHS  T
   PRINT_LEVEL  MEDIUM
   PROJECT_NAME dft_wfn
   RUN_TYPE  GEO_OPT
 &END GLOBAL
 &MOTION
   &GEO_OPT
     OPTIMIZER  CG
     MAX_ITER  1000
     STEP_START_VAL  4
   &END GEO_OPT
   &CONSTRAINT
     &FIXED_ATOMS
       LIST  1..40 76..116
     &END FIXED_ATOMS
   &END CONSTRAINT
   &PRINT
     &TRAJECTORY  ON
       FORMAT  XMOL
     &END TRAJECTORY
   &END PRINT
 &END MOTION
 &FORCE_EVAL
   METHOD  QS
   &DFT
     BASIS_SET_FILE_NAME BASIS_MOLOPT
     POTENTIAL_FILE_NAME GTH_POTENTIALS
     &SCF
       MAX_SCF  100
       EPS_SCF     9.9999999999999995E-08
       SCF_GUESS  ATOMIC
       ADDED_MOS  100
       &SMEAR  T
         METHOD  FERMI_DIRAC
         ELECTRONIC_TEMPERATURE     2.9300000000000000E+02
       &END SMEAR
       &MIXING  T
         METHOD  BROYDEN_MIXING
         ALPHA     2.9999999999999999E-01
         NBUFFER  8
       &END MIXING
       &PRINT
         &RESTART  SILENT
           FILENAME RESTART_0
         &END RESTART
       &END PRINT
     &END SCF
     &MGRID
       CUTOFF     4.0000000000000000E+02
     &END MGRID
     &XC
       DENSITY_CUTOFF     1.0000000000000000E-10
       GRADIENT_CUTOFF     1.0000000000000000E-10
       TAU_CUTOFF     1.0000000000000000E-10
       &XC_FUNCTIONAL  NO_SHORTCUT
         &PADE  T
         &END PADE
       &END XC_FUNCTIONAL
     &END XC
     &POISSON
       PERIODIC  XYZ
     &END POISSON
     &KPOINTS
       SCHEME MONKHORST-PACK 2 2 1
       SYMMETRY  F
       FULL_GRID  T
       VERBOSE  T
       EPS_GEO     1.0000000000000000E-08
       PARALLEL_GROUP_SIZE  0
     &END KPOINTS
     &PRINT
       &E_DENSITY_CUBE  ON
         STRIDE  2 2 2
       &END E_DENSITY_CUBE
       &V_HARTREE_CUBE  SILENT
         STRIDE  2 2 2
       &END V_HARTREE_CUBE
       &HIRSHFELD  SILENT
         SHAPE_FUNCTION  DENSITY
       &END HIRSHFELD
     &END PRINT
   &END DFT
   &SUBSYS
     &CELL
       A     8.2919999999999998E+00    0.0000000000000000E+00    0.0000000000000000E+00
       B     0.0000000000000000E+00    8.2919999999999998E+00    0.0000000000000000E+00
       C     0.0000000000000000E+00    0.0000000000000000E+00    3.4837000000000003E+01
       PERIODIC  XYZ
       MULTIPLE_UNIT_CELL  1 1 1
     &END CELL
     &COORD
Au    0.0000000000000000E+00    0.0000000000000000E+00    0.0000000000000000E+00
Au    0.0000000000000000E+00    4.1459999999999999E+00    0.0000000000000000E+00
Au    2.0730000000000000E+00    2.0730000000000000E+00    0.0000000000000000E+00
Au    2.0730000000000000E+00    6.2190000000000012E+00    0.0000000000000000E+00
Au    4.1459999999999999E+00    0.0000000000000000E+00    0.0000000000000000E+00
Au    4.1459999999999999E+00    4.1459999999999999E+00    0.0000000000000000E+00
Au    6.2190000000000012E+00    2.0730000000000000E+00    0.0000000000000000E+00
Au    6.2190000000000012E+00    6.2190000000000012E+00    0.0000000000000000E+00
Au    0.0000000000000000E+00    2.0730000000000000E+00    2.0730000000000000E+00
Au    0.0000000000000000E+00    6.2190000000000012E+00    2.0730000000000000E+00
Au    2.0730000000000000E+00    0.0000000000000000E+00    2.0730000000000000E+00
Au    2.0730000000000000E+00    4.1459999999999999E+00    2.0730000000000000E+00
Au    4.1459999999999999E+00    2.0730000000000000E+00    2.0730000000000000E+00
Au    4.1459999999999999E+00    6.2190000000000012E+00    2.0730000000000000E+00
Au    6.2190000000000012E+00    0.0000000000000000E+00    2.0730000000000000E+00
Au    6.2190000000000012E+00    4.1459999999999999E+00    2.0730000000000000E+00
Au    0.0000000000000000E+00    0.0000000000000000E+00    4.1459999999999999E+00
Au    0.0000000000000000E+00    4.1459999999999999E+00    4.1459999999999999E+00
Au    2.0730000000000000E+00    2.0730000000000000E+00    4.1459999999999999E+00
Au    2.0730000000000000E+00    6.2190000000000012E+00    4.1459999999999999E+00
Au    4.1459999999999999E+00    0.0000000000000000E+00    4.1459999999999999E+00
Au    4.1459999999999999E+00    4.1459999999999999E+00    4.1459999999999999E+00
Au    6.2190000000000012E+00    2.0730000000000000E+00    4.1459999999999999E+00
Au    6.2190000000000012E+00    6.2190000000000012E+00    4.1459999999999999E+00
Au    0.0000000000000000E+00    2.0730000000000000E+00    6.2190000000000012E+00
Au    0.0000000000000000E+00    6.2190000000000012E+00    6.2190000000000012E+00
Au    2.0730000000000000E+00    0.0000000000000000E+00    6.2190000000000012E+00
Au    2.0730000000000000E+00    4.1459999999999999E+00    6.2190000000000012E+00
Au    4.1459999999999999E+00    2.0730000000000000E+00    6.2190000000000012E+00
Au    4.1459999999999999E+00    6.2190000000000012E+00    6.2190000000000012E+00
Au    6.2190000000000012E+00    0.0000000000000000E+00    6.2190000000000012E+00
Au    6.2190000000000012E+00    4.1459999999999999E+00    6.2190000000000012E+00
Au    0.0000000000000000E+00    0.0000000000000000E+00    8.2919999999999998E+00
Au    0.0000000000000000E+00    4.1459999999999999E+00    8.2919999999999998E+00
Au    2.0730000000000000E+00    2.0730000000000000E+00    8.2919999999999998E+00
Au    2.0730000000000000E+00    6.2190000000000012E+00    8.2919999999999998E+00
Au    4.1459999999999999E+00    0.0000000000000000E+00    8.2919999999999998E+00
Au    4.1459999999999999E+00    4.1459999999999999E+00    8.2919999999999998E+00
Au    6.2190000000000012E+00    2.0730000000000000E+00    8.2919999999999998E+00
Au    6.2190000000000012E+00    6.2190000000000012E+00    8.2919999999999998E+00
Au    4.9359855893907695E-05    2.0730334209996122E+00    1.0379932772603292E+01
Au   -6.6116684527351904E-07    6.2189485843545187E+00    1.0356481297283928E+01
Au    2.0752609736047867E+00    4.3899058316937706E-03    1.0359628227976815E+01
Au    2.0753072230803506E+00    4.1417363443548529E+00    1.0359540002144806E+01
Au    4.1460261775853953E+00    2.0728924361646426E+00    1.0340964820254818E+01
Au    4.1459844664045731E+00    6.2185100063422523E+00    1.0376899165055280E+01
Au    6.2167243674507686E+00    4.3973467348592298E-03    1.0359660814226764E+01
Au    6.2166791670348909E+00    4.1417292632189628E+00    1.0359571093542771E+01
Au    1.8096978221144565E-06   -1.3222944956277490E-02    1.2444933452815915E+01
Au    2.9819215101962970E-06    4.1593768647578830E+00    1.2445039579839113E+01
Au    2.0159069419819788E+00    2.0729814884429820E+00    1.2476179124936490E+01
Au    2.0586455986230252E+00    6.2189879923459124E+00    1.2445082218499376E+01
Au    4.1460028977995673E+00   -6.3346527754024023E-02    1.2464474581699823E+01
Au    4.1460044504988822E+00    4.2081190210102477E+00    1.2466091373990299E+01
Au    6.2762775574112286E+00    2.0729828876677687E+00    1.2476025869870243E+01
Au    6.2333382855909312E+00    6.2189891939060482E+00    1.2445092768738853E+01
S    4.1457352992343681E+00    2.0786046559468185E+00    1.4229989899112450E+01
C    4.1440110963195140E+00    2.0853979072603925E+00    1.6015573892651854E+01
H    1.9888566277786721E+00    2.0944838160454373E+00    1.6170805970958295E+01
H    6.2953286833555122E+00    2.0943519771860912E+00    1.6182220834915867E+01
C    2.9309498170722592E+00    2.0802822206371228E+00    1.6722462550829384E+01
C    5.3559888918941105E+00    2.0804260769144700E+00    1.6723076447778983E+01
C    2.9255721990867518E+00    2.0638248773122747E+00    1.8113942386745450E+01
C    5.3507296766862691E+00    2.0639374066921494E+00    1.8114665205325654E+01
H    1.9866392058040208E+00    2.0496999754660816E+00    1.8654388807557055E+01
H    6.2926767772552399E+00    2.0495344748451423E+00    1.8665995624923895E+01
C    4.1375340970349930E+00    2.0592055105107030E+00    1.8820490477990031E+01
S    4.1408269657478822E+00    2.0669166903326976E+00    2.0605907799691376E+01
Au   -2.3845662683529627E-04   -1.1601434480224744E-02    2.2391352534879029E+01
Au   -2.4000509007519397E-04    4.1574141053933182E+00    2.2391457796935278E+01
Au    2.0132184251639611E+00    2.0730963562869000E+00    2.2358801778866994E+01
Au    2.0603071067669232E+00    6.2189780406428028E+00    2.2390857956551461E+01
Au    4.1457432375627734E+00   -6.4485487773991823E-02    2.2369029243818620E+01
Au    4.1457438535461817E+00    4.2117596227264116E+00    2.2370801576514960E+01
Au    6.2795819607332621E+00    2.0730980434633572E+00    2.2360302743273213E+01
Au    6.2190000000000012E+00    6.2190000000000012E+00    2.2399000000000001E+01
Au    0.0000000000000000E+00    2.0730000000000000E+00    2.4472000000000001E+01
Au    0.0000000000000000E+00    6.2190000000000012E+00    2.4472000000000001E+01
Au    2.0730000000000000E+00    0.0000000000000000E+00    2.4472000000000001E+01
Au    2.0730000000000000E+00    4.1459999999999999E+00    2.4472000000000001E+01
Au    4.1459999999999999E+00    2.0730000000000000E+00    2.4472000000000001E+01
Au    4.1459999999999999E+00    6.2190000000000012E+00    2.4472000000000001E+01
Au    6.2190000000000012E+00    0.0000000000000000E+00    2.4472000000000001E+01
Au    6.2190000000000012E+00    4.1459999999999999E+00    2.4472000000000001E+01
Au    0.0000000000000000E+00    0.0000000000000000E+00    2.6545000000000002E+01
Au    0.0000000000000000E+00    4.1459999999999999E+00    2.6545000000000002E+01
Au    2.0730000000000000E+00    2.0730000000000000E+00    2.6545000000000002E+01
Au    2.0730000000000000E+00    6.2190000000000012E+00    2.6545000000000002E+01
Au    4.1459999999999999E+00    0.0000000000000000E+00    2.6545000000000002E+01
Au    4.1459999999999999E+00    4.1459999999999999E+00    2.6545000000000002E+01
Au    6.2190000000000012E+00    2.0730000000000000E+00    2.6545000000000002E+01
Au    6.2190000000000012E+00    6.2190000000000012E+00    2.6545000000000002E+01
Au    0.0000000000000000E+00    2.0730000000000000E+00    2.8618000000000002E+01
Au    0.0000000000000000E+00    6.2190000000000012E+00    2.8618000000000002E+01
Au    2.0730000000000000E+00    0.0000000000000000E+00    2.8618000000000002E+01
Au    2.0730000000000000E+00    4.1459999999999999E+00    2.8618000000000002E+01
Au    4.1459999999999999E+00    2.0730000000000000E+00    2.8618000000000002E+01
Au    4.1459999999999999E+00    6.2190000000000012E+00    2.8618000000000002E+01
Au    6.2190000000000012E+00    0.0000000000000000E+00    2.8618000000000002E+01
Au    6.2190000000000012E+00    4.1459999999999999E+00    2.8618000000000002E+01
Au    0.0000000000000000E+00    0.0000000000000000E+00    3.0690999999999999E+01
Au    0.0000000000000000E+00    4.1459999999999999E+00    3.0690999999999999E+01
Au    2.0730000000000000E+00    2.0730000000000000E+00    3.0690999999999999E+01
Au    2.0730000000000000E+00    6.2190000000000012E+00    3.0690999999999999E+01
Au    4.1459999999999999E+00    0.0000000000000000E+00    3.0690999999999999E+01
Au    4.1459999999999999E+00    4.1459999999999999E+00    3.0690999999999999E+01
Au    6.2190000000000012E+00    2.0730000000000000E+00    3.0690999999999999E+01
Au    6.2190000000000012E+00    6.2190000000000012E+00    3.0690999999999999E+01
Au    0.0000000000000000E+00    2.0730000000000000E+00    3.2764000000000003E+01
Au    0.0000000000000000E+00    6.2190000000000012E+00    3.2764000000000003E+01
Au    2.0730000000000000E+00    0.0000000000000000E+00    3.2764000000000003E+01
Au    2.0730000000000000E+00    4.1459999999999999E+00    3.2764000000000003E+01
Au    4.1459999999999999E+00    2.0730000000000000E+00    3.2764000000000003E+01
Au    4.1459999999999999E+00    6.2190000000000012E+00    3.2764000000000003E+01
Au    6.2190000000000012E+00    0.0000000000000000E+00    3.2764000000000003E+01
Au    6.2190000000000012E+00    4.1459999999999999E+00    3.2764000000000003E+01
     &END COORD
     &KIND Au
       BASIS_SET SZV-MOLOPT-SR-GTH
       POTENTIAL GTH-PADE-q11
       &POTENTIAL
 1 0 10
  0.5900000000000000E+00 1  0.1160442790000000E+02
 3
  0.5211797500000001E+00 2  0.2538613590000000E+01 -0.1046136640000000E+01
  0.2701113200000000E+01
  0.6306130599999999E+00 2  0.3948527000000000E+00 -0.8695921300000000E+00
  0.2057830560000000E+01
  0.4407064300000000E+00 2 -0.4719069660000000E+01  0.7277708100000000E+00
 -0.1650429070000000E+01
         # Potential name:  GTH-PADE-Q11  for symbol:  AU
         # Potential read from the potential filename: GTH_POTENTIALS
       &END POTENTIAL
     &END KIND
     &KIND C
       BASIS_SET DZVP-MOLOPT-SR-GTH
       ELEMENT C
       POTENTIAL GTH-PADE-q4
       &POTENTIAL
 2 2
  0.3488304500000000E+00 2 -0.8513771100000000E+01  0.1228432030000000E+01
 2
  0.3045532100000000E+00 1  0.9522841789999999E+01
  0.2326773000000000E+00 0
         # Potential name:  GTH-PADE-Q4  for symbol:  C
         # Potential read from the potential filename: GTH_POTENTIALS
       &END POTENTIAL
     &END KIND
     &KIND S
       BASIS_SET DZVP-MOLOPT-SR-GTH
       ELEMENT S
       POTENTIAL GTH-PADE-q6
       &POTENTIAL
 2 4
  0.4200000000000000E+00 1 -0.6554491840000000E+01
 2
  0.3617566500000000E+00 2  0.7905302500000000E+01 -0.1731881300000000E+01
  0.4471698300000000E+01
  0.4052850200000000E+00 1  0.3866579000000000E+01
         # Potential name:  GTH-PADE-Q6  for symbol:  S
         # Potential read from the potential filename: GTH_POTENTIALS
       &END POTENTIAL
     &END KIND
     &KIND H
       BASIS_SET DZVP-MOLOPT-SR-GTH
       ELEMENT H
       POTENTIAL GTH-PADE-q1
       &POTENTIAL
 1
  0.2000000000000000E+00 2 -0.4180236800000000E+01  0.7250748200000000E+00
 0
         # Potential name:  GTH-PADE-Q1  for symbol:  H
         # Potential read from the potential filename: GTH_POTENTIALS
       &END POTENTIAL
     &END KIND
     &TOPOLOGY
       COORD_FILE_NAME em.xyz
       COORD_FILE_FORMAT  XYZ
       NUMBER_OF_ATOMS  116
       MULTIPLE_UNIT_CELL  1 1 1
     &END TOPOLOGY
   &END SUBSYS
 &END FORCE_EVAL
