 # Version information for this restart file 
 # current date 2022-10-19 12:36:34.841
 # current working dir /work4/scd/scarf1157/work/testing/cp2k-smeagol/bdt/em/3-opt
 # Program compiled at                              Thu  6 Oct 11:48:07 BST 2022
 # Program compiled on                                     cn1065.scarf.rl.ac.uk
 # Program compiled for                                                    local
 # Source code revision number                                       git:8c0411e
 &GLOBAL
   EXTENDED_FFT_LENGTHS  T
   PRINT_LEVEL  MEDIUM
   PROJECT_NAME dft_wfn
   RUN_TYPE  GEO_OPT
 &END GLOBAL
 &FORCE_EVAL
   METHOD  QS
   &DFT
     BASIS_SET_FILE_NAME BASIS_MOLOPT
     POTENTIAL_FILE_NAME GTH_POTENTIALS
     &SCF
       MAX_SCF  100
       EPS_SCF     9.9999999999999995E-08
       SCF_GUESS  ATOMIC
       ADDED_MOS  100
       &SMEAR  T
         METHOD  FERMI_DIRAC
         ELECTRONIC_TEMPERATURE     2.9300000000000000E+02
       &END SMEAR
       &MIXING  T
         METHOD  BROYDEN_MIXING
         ALPHA     2.9999999999999999E-01
         NBUFFER  8
       &END MIXING
       &PRINT
         &RESTART  SILENT
           FILENAME RESTART_0
         &END RESTART
       &END PRINT
     &END SCF
     &MGRID
       CUTOFF     4.0000000000000000E+02
     &END MGRID
     &XC
       DENSITY_CUTOFF     1.0000000000000000E-10
       GRADIENT_CUTOFF     1.0000000000000000E-10
       TAU_CUTOFF     1.0000000000000000E-10
       &XC_FUNCTIONAL  NO_SHORTCUT
         &PADE  T
         &END PADE
       &END XC_FUNCTIONAL
     &END XC
     &POISSON
       PERIODIC  XYZ
     &END POISSON
     &PRINT
       &MO_CUBES  ON
         NLUMO  1
         NHOMO  1
       &END MO_CUBES
       &E_DENSITY_CUBE  ON
       &END E_DENSITY_CUBE
       &HIRSHFELD  SILENT
         SHAPE_FUNCTION  DENSITY
       &END HIRSHFELD
     &END PRINT
   &END DFT
   &SUBSYS
     &CELL
       A     1.6685150000000000E+01    0.0000000000000000E+00    0.0000000000000000E+00
       B     0.0000000000000000E+00    1.6685150000000000E+01    0.0000000000000000E+00
       C     0.0000000000000000E+00    0.0000000000000000E+00    2.7931940000000001E+01
       PERIODIC  XYZ
       MULTIPLE_UNIT_CELL  1 1 1
     &END CELL
     &COORD
Au    1.0387223010528319E+00    1.0523015494111196E+00    1.3532628867115744E+00
Au    1.0395949856223692E+00    3.1423802664280691E+00    3.4071648414992035E+00
Au    3.1371684884874873E+00    1.0549721835993633E+00    3.4039216377497561E+00
Au    3.1380378633419355E+00    3.1428227547761742E+00    1.3548778365536889E+00
Au    1.0401514924469093E+00    1.0400000777296803E+00    5.4342444107120498E+00
Au    5.2278869120533900E+00    1.0546230210941379E+00    1.3568084602024864E+00
Au    1.3539039724581119E+01    1.0577627626735728E+00    1.3588001406724886E+00
Au    1.0412062843207519E+00    5.2217807744220091E+00    1.3527438968878782E+00
Au    1.0406762834315779E+00    1.3553522406561486E+01    1.3567726695651594E+00
Au    1.0372274572379074E+00    3.1258251282608249E+00    7.4970543489567998E+00
Au    5.2336717869637521E+00    3.1474777497748980E+00    3.4228368128517785E+00
Au    1.3532249743557021E+01    3.1508846472805834E+00    3.4250468103079181E+00
Au    1.0415758234752228E+00    7.2997420903367347E+00    3.4123084958289445E+00
Au    1.0402595876159613E+00    1.5643232010299013E+01    3.3970857038575830E+00
Au    3.1222272824345905E+00    1.0439732396236749E+00    7.4927060376665828E+00
Au    7.3096417497575530E+00    1.0574402158117340E+00    3.4217029205546110E+00
Au    1.5628166746102760E+01    1.0569363425181162E+00    3.4068106845752606E+00
Au    3.1434838289841105E+00    5.2223421660535188E+00    3.4205934283923209E+00
Au    3.1395220132226362E+00    1.3543808864481280E+01    3.4081132378982968E+00
Au    3.1365627812784362E+00    3.1373351875830866E+00    5.4495683960728929E+00
Au    7.3188504689274589E+00    3.1474180728221266E+00    1.3624061303302817E+00
Au    1.5626609993631375E+01    3.1459862275617381E+00    1.3565045843629759E+00
Au    3.1433495701754932E+00    7.3008130162494078E+00    1.3563718625279879E+00
Au    3.1331450416695490E+00    1.5643648065224545E+01    1.3560977642503924E+00
Au    1.0393444606620712E+00    5.2196758064658262E+00    5.4502948639026778E+00
Au    1.0415286639712247E+00    1.3558312912322005E+01    5.4355885391729508E+00
Au    5.2208178792289344E+00    1.0520499108963872E+00    5.4496999535116180E+00
Au    1.3544800953154180E+01    1.0554501237484286E+00    5.4528850884803068E+00
Au    5.2362276272824255E+00    5.2295210190778487E+00    1.3639703522691493E+00
Au    1.3545820985661390E+01    1.3548183065734690E+01    1.3586993036664416E+00
Au    1.3530266784039769E+01    5.2339009330781945E+00    1.3652466223546580E+00
Au    5.2249828290187175E+00    1.3546556535814966E+01    1.3571148833194866E+00
Au    1.0393036159817661E+00    7.2997257371060931E+00    7.5123347430214356E+00
Au    1.0381734893182268E+00    1.5643440464066872E+01    7.5067623016337812E+00
Au    5.2193804391556853E+00    3.1354963729344165E+00    7.5155594831361494E+00
Au    1.3543456378023858E+01    3.1402369047691874E+00    7.5175719649510881E+00
Au    5.2403255678737342E+00    7.2987866278187852E+00    3.4475015996626586E+00
Au    1.3541387048855123E+01    1.5643599390560928E+01    3.4103338648765011E+00
Au    1.3526471382407578E+01    7.2998374145926368E+00    3.4501625605866590E+00
Au    5.2269537763129676E+00    1.5641297763465460E+01    3.4072314985440015E+00
Au    3.1232083287204326E+00    5.2095802605763586E+00    7.5142367095183893E+00
Au    3.1275758883470877E+00    1.3551587356629215E+01    7.4915127903148910E+00
Au    7.2959761856536769E+00    1.0391974012569214E+00    7.5147441478414043E+00
Au    1.5641384442502481E+01    1.0460785079127082E+00    7.4954515083211222E+00
Au    7.3205010850378116E+00    5.2324215597688788E+00    3.4603686188881273E+00
Au    1.5628809112420168E+01    1.3544693235838244E+01    3.4098661398152519E+00
Au    1.5622437829993499E+01    5.2253929445925476E+00    3.4217424982205289E+00
Au    7.3126926278012139E+00    1.3536180760179802E+01    3.4195853621539016E+00
Au    3.1417770012199679E+00    7.2970132042557818E+00    5.4662954485646837E+00
Au    3.1254639329299967E+00    1.5640698432272984E+01    5.4353161013768565E+00
Au    7.3184280521923286E+00    3.1627657323572631E+00    5.4993711440262931E+00
Au    1.5627665287319410E+01    3.1401000619698838E+00    5.4520940737075732E+00
Au    7.3107502065538759E+00    7.2977152379994727E+00    1.3696376273444972E+00
Au    1.5632876862263464E+01    1.5645659671693837E+01    1.3572810560145410E+00
Au    1.5626354769156190E+01    7.3033806803584600E+00    1.3575474470746902E+00
Au    7.3046447569116779E+00    1.5639450030928757E+01    1.3537354615756561E+00
Au    1.0428877047526650E+00    9.3870186524208830E+00    1.3555478583249887E+00
Au    9.3854019941340123E+00    1.0507173482735810E+00    1.3568251583676683E+00
Au    1.0419339139875166E+00    1.1459879103462224E+01    3.4119154123844875E+00
Au    9.3833344482474494E+00    3.1528192073836929E+00    3.4508248620854660E+00
Au    3.1463061178337273E+00    9.3751646054830591E+00    3.4206038860889878E+00
Au    1.1457964415641634E+01    1.0598243438970696E+00    3.4238497782610136E+00
Au    3.1392314483802402E+00    1.1460297222018253E+01    1.3588202190985434E+00
Au    1.1448906157955189E+01    3.1509617403655561E+00    1.3643887395016243E+00
Au    1.0419182776156610E+00    9.3774834820322255E+00    5.4497740312466219E+00
Au    9.3832454055546073E+00    5.2257699732507481E+00    1.3686807559721030E+00
Au    9.3878521424820391E+00    1.3537124306695661E+01    1.3553737988048569E+00
Au    9.3824284507225517E+00    1.0549463601974560E+00    5.4687667960024289E+00
Au    5.2378238837690194E+00    9.3677384649094790E+00    1.3620558881633769E+00
Au    1.3533384521326726E+01    9.3684817335583439E+00    1.3634512945908090E+00
Au    1.0412301890754976E+00    1.1473913476112530E+01    7.4907636646502782E+00
Au    9.3837094739628633E+00    7.2995538728474409E+00    3.4675518122189275E+00
Au    9.3859061902860699E+00    1.5638448655051635E+01    3.4146416022865806E+00
Au    9.3815670938130999E+00    3.1245621607475442E+00    7.5732371916129244E+00
Au    5.2370220949136046E+00    1.1448370841181596E+01    3.4229838734102724E+00
Au    1.3532199499089646E+01    1.1448335668757109E+01    3.4251692007818089E+00
Au    3.1285788903346203E+00    9.3813422067452308E+00    7.5133211158266535E+00
Au    1.1445093807929396E+01    5.2346606896579591E+00    3.4620248798654178E+00
Au    1.1458813279309236E+01    1.3536812531450009E+01    3.4216456073419899E+00
Au    1.1467015506673665E+01    1.0425169781421715E+00    7.5166604758441045E+00
Au    7.3232476185195798E+00    9.3645045331524130E+00    3.4581625552373110E+00
Au    1.5623264997134575E+01    9.3760436231361073E+00    3.4216954938091573E+00
Au    3.1437931718436252E+00    1.1456593329953929E+01    5.4519667900641817E+00
Au    1.1459079636260102E+01    7.3001903337376532E+00    1.3692654614578228E+00
Au    1.1467942688102767E+01    1.5640844541934335E+01    1.3542277591562721E+00
Au    1.1446115461357037E+01    3.1648175815173230E+00    5.5009874244080708E+00
Au    7.3156945457729279E+00    1.1449628075183499E+01    1.3600470544140504E+00
Au    1.5629972714512526E+01    1.1460999072892244E+01    1.3599981803716146E+00
Au    5.2506775582695733E+00    5.2344270566044617E+00    5.4982174314830301E+00
Au    1.3541523331994599E+01    1.3541319016951219E+01    5.4519989719856961E+00
Au    1.3512938983942538E+01    5.2372240059414112E+00    5.5002798584001207E+00
Au    5.2269828482403087E+00    1.3540983941499883E+01    5.4500746389650301E+00
Au    5.2129028193348761E+00    7.2930777107094045E+00    7.5684301344347080E+00
Au    1.3556909819670640E+01    1.5643423791713994E+01    7.4926866057433061E+00
Au    1.3551092370404019E+01    7.2942784858370358E+00    7.5728767876201379E+00
Au    5.2087299882528884E+00    1.5639450530306801E+01    7.4903465973942795E+00
Au    7.3334679618183811E+00    5.2367674984387262E+00    7.6372008281339205E+00
Au    1.5639672254605619E+01    1.3552251710364217E+01    7.4921380823566839E+00
Au    1.5639648195783765E+01    5.2149609459301445E+00    7.5158516662776744E+00
Au    7.3020607303783756E+00    1.3551557711045444E+01    7.5165209527828978E+00
Au    7.3589012344752920E+00    7.2979259081445615E+00    5.5840774215313633E+00
Au    1.5640721322265396E+01    1.5641946703224544E+01    5.4369520727688956E+00
Au    1.5623124176004531E+01    7.3003103958727342E+00    5.4672122937892809E+00
Au    7.3049369307559191E+00    1.5637622965181984E+01    5.4500352247148358E+00
Au    5.2554653124359394E+00    9.3588877945034987E+00    5.5004691309770140E+00
Au    1.3510717538283330E+01    9.3582144306150248E+00    5.5015596146003931E+00
Au    9.3812894369241828E+00    5.2732646992075782E+00    5.5807405626561186E+00
Au    9.3856649678129216E+00    1.3537564793322272E+01    5.4702981058568145E+00
Au    5.2274866314966326E+00    1.1455664217413384E+01    7.5186749968743012E+00
Au    1.3539497135324037E+01    1.1454350274524007E+01    7.5193004909555565E+00
Au    9.3843884714695953E+00    7.2565776063573839E+00    8.2253507855910541E+00
Au    9.3839308385848241E+00    1.5640107827991876E+01    7.5137484346477104E+00
Au    7.3424134314493932E+00    9.3395218230373800E+00    7.6495855799372761E+00
Au    1.5638134850288635E+01    9.3831691327343201E+00    7.5143771692970711E+00
Au    1.1429515305070298E+01    5.2377668586554842E+00    7.6388736977954821E+00
Au    1.1468770681979111E+01    1.3552045894561376E+01    7.5178071442187928E+00
Au    7.3215210539147861E+00    1.1427401333711844E+01    5.5033504224854086E+00
Au    1.5624229473082627E+01    1.1456790666233939E+01    5.4531250794936970E+00
Au    1.1404034029232582E+01    7.2992334016515867E+00    5.5886351087704309E+00
Au    1.1463759206688582E+01    1.5639735172835868E+01    5.4525326135799590E+00
Au    9.3862923632394981E+00    9.3740670564960560E+00    1.3661046591093671E+00
Au    9.3849961026565669E+00    1.1440506753186817E+01    3.4508230038615428E+00
Au    1.1444790202572801E+01    9.3639334238007166E+00    3.4598937883125562E+00
Au    1.1457375524711619E+01    1.1449840220574258E+01    1.3619228764119968E+00
Au    9.3837002009589998E+00    9.3203650972772127E+00    5.5873719255613841E+00
Au    9.3842513307030391E+00    1.1460007289547852E+01    7.5756387788924400E+00
Au    1.1425044850665412E+01    9.3398029853415743E+00    7.6561914142221346E+00
Au    1.1446248843145677E+01    1.1426081707727919E+01    5.5049429539546431E+00
S    9.2498613003886199E+00    6.5450736036856050E+00    1.7079309232191385E+01
C    9.3500459335402066E+00    7.0930747852808356E+00    1.5427263282170948E+01
C    8.1642362496452812E+00    7.2338955376006604E+00    1.4631999994700671E+01
C    1.0594702433795394E+01    7.2101276309449016E+00    1.4728526453960892E+01
S    9.5495843144687171E+00    8.0367158393984415E+00    1.0892248472825031E+01
C    9.4610299861531857E+00    7.5361302348838910E+00    1.2557330791933666E+01
C    1.0647174991931230E+01    7.3973762930044487E+00    1.3353191659423707E+01
C    8.2172722940530019E+00    7.4189935741121236E+00    1.3257203051617919E+01
H    7.1920844711220138E+00    7.1654239645518745E+00    1.5134317979238364E+01
H    1.1524893199314096E+01    7.1162624864759056E+00    1.5301682977662075E+01
H    1.1618343713900861E+01    7.4649392179797704E+00    1.2847941500672006E+01
H    7.2873362013306506E+00    7.5084168424336220E+00    1.2683500765035674E+01
Au    1.0442368261200043E+00    1.0449393981758561E+00    2.6569087477592028E+01
Au    1.0422694031135926E+00    3.1248733808063114E+00    2.0439217860232791E+01
Au    3.1283683311153241E+00    1.0457793637878177E+00    2.0439124948771106E+01
Au    3.1383916570488051E+00    3.1387491483594618E+00    2.6567595609606890E+01
Au    1.0417535718879603E+00    1.0402320211622089E+00    2.2493942686251085E+01
Au    5.2233809093936099E+00    1.0504662593705727E+00    2.6569112222620539E+01
Au    1.3547060026243104E+01    1.0495310016634249E+00    2.6570777282812479E+01
Au    1.0416231075674476E+00    5.2123449229058219E+00    2.6572511597165015E+01
Au    1.0427898435916105E+00    1.3545888815253420E+01    2.6572470349747071E+01
Au    1.0424698425497363E+00    3.1403402653053125E+00    2.4515215876833370E+01
Au    5.2307561454611919E+00    3.1456910273162051E+00    2.0413050941251182E+01
Au    1.3537124748467349E+01    3.1471035574721458E+00    2.0413782336874707E+01
Au    1.0428896456130239E+00    7.2979111196104762E+00    2.0416491127564964E+01
Au    1.0440952744874632E+00    1.5639428830051314E+01    2.0424825648160684E+01
Au    3.1411541004185390E+00    1.0551281837712310E+00    2.4517207276785651E+01
Au    7.3016375013000641E+00    1.0476083310467752E+00    2.0411864278675399E+01
Au    1.5640109781274809E+01    1.0474279127014414E+00    2.0440466036759030E+01
Au    3.1316423226008134E+00    5.2164335090741929E+00    2.0414932840132430E+01
Au    3.1279704871438927E+00    1.3550947068478150E+01    2.0437060960870767E+01
Au    3.1454629512748413E+00    3.1435811956453148E+00    2.2475856863869463E+01
Au    7.3113278646192068E+00    3.1460351548787435E+00    2.6570984485904038E+01
Au    1.5632393778734860E+01    3.1367181223048863E+00    2.6569161412641606E+01
Au    3.1406760434320149E+00    7.2970421346396561E+00    2.6573462520506691E+01
Au    3.1350726622369320E+00    1.5639310888834347E+01    2.6568739764965464E+01
Au    1.0417469899213743E+00    5.2227465472938697E+00    2.2478343470496149E+01
Au    1.0422136771517985E+00    1.3556572462580851E+01    2.2494427995685296E+01
Au    5.2289290022716077E+00    1.0578432636738562E+00    2.2476847369214429E+01
Au    1.3540228128465355E+01    1.0581558801410591E+00    2.2478649305127369E+01
Au    5.2334902398671108E+00    5.2300007985492414E+00    2.6569217537508329E+01
Au    1.3541182845714308E+01    1.3543927829523472E+01    2.6571036551733449E+01
Au    1.3534543281246092E+01    5.2279209532300808E+00    2.6570897359092271E+01
Au    5.2277980372457717E+00    1.3543990615937384E+01    2.6569268002737637E+01
Au    1.0422625033458706E+00    7.2991716880795305E+00    2.4515488760433861E+01
Au    1.0423996566382443E+00    1.5639579388771963E+01    2.4529415431644590E+01
Au    5.2373187652008770E+00    3.1509890228960580E+00    2.4504478759893697E+01
Au    1.3531008705924306E+01    3.1506306237383552E+00    2.4506189211269255E+01
Au    5.2215039914947310E+00    7.3042976220177147E+00    2.0358152942160348E+01
Au    1.3557368706359144E+01    1.5641562616175285E+01    2.0439653542756311E+01
Au    1.3550311729421088E+01    7.3048887293925961E+00    2.0361950841558947E+01
Au    5.2129090073954805E+00    1.5639744640431040E+01    2.0438230973030343E+01
Au    3.1467883719338983E+00    5.2241500644411953E+00    2.4506940726132392E+01
Au    3.1402584364738924E+00    1.3541119298556703E+01    2.4520958688120029E+01
Au    7.3117770266153430E+00    1.0626257298454711E+00    2.4507061699013715E+01
Au    1.5628891704882918E+01    1.0547236681621346E+00    2.4519018854777521E+01
Au    7.3595159696842822E+00    5.2755625467460678E+00    2.0278686628867231E+01
Au    1.5644721906578038E+01    1.3552783427083821E+01    2.0437680306197688E+01
Au    1.5637462531217846E+01    5.2159992093650072E+00    2.0417307290044938E+01
Au    7.3011890049528025E+00    1.3553185333219737E+01    2.0414301490529439E+01
Au    3.1470283731327249E+00    7.2991801745063096E+00    2.2461498630408570E+01
Au    3.1282000213036576E+00    1.5641237167115028E+01    2.2492447635371050E+01
Au    7.3233918272021237E+00    3.1755504350483035E+00    2.2425149643830736E+01
Au    1.5623435540072462E+01    3.1432744445094416E+00    2.2477487430870593E+01
Au    7.3070847524673823E+00    7.2983418074991224E+00    2.6566417228651009E+01
Au    1.5636471887406888E+01    1.5638055513752295E+01    2.6569592955644588E+01
Au    1.5627765686863466E+01    7.2970707852081471E+00    2.6574401534716909E+01
Au    7.3020799561609708E+00    1.5643682442370917E+01    2.6574057398591837E+01
Au    1.0420729318014428E+00    9.3779026465681845E+00    2.6575566217668140E+01
Au    9.3834702753547532E+00    1.0587149379530321E+00    2.6575656146547558E+01
Au    1.0437208426243714E+00    1.1469976435209242E+01    2.0433097672907468E+01
Au    9.3829554022221355E+00    3.1446570077977856E+00    2.0356011199349435E+01
Au    3.1307958001060889E+00    9.3838534583109805E+00    2.0414106486088706E+01
Au    1.1467016938180175E+01    1.0489807671366926E+00    2.0413332623608568E+01
Au    3.1392728168449593E+00    1.1454729380816957E+01    2.6571289431936915E+01
Au    1.1456134822028661E+01    3.1448582751029952E+00    2.6572913823346287E+01
Au    1.0428730512497066E+00    9.3765497140594540E+00    2.2477053379751094E+01
Au    9.3824235494259973E+00    5.2217576385149505E+00    2.6569782789655573E+01
Au    9.3833432454835322E+00    1.3549464180569705E+01    2.6574152784848739E+01
Au    9.3843282425015477E+00    1.0627981158132991E+00    2.2458124730299375E+01
Au    5.2353586492170594E+00    9.3673286439693744E+00    2.6567645288831258E+01
Au    1.3533149205937663E+01    9.3684134814913254E+00    2.6568811627300633E+01
Au    1.0425521755111735E+00    1.1454226818478690E+01    2.4519641768845986E+01
Au    9.3956290362113766E+00    7.3703568880619041E+00    1.9568829433245142E+01
Au    9.3847495102932683E+00    1.5641727102749480E+01    2.0415423953948149E+01
Au    9.3846440867447285E+00    3.1561797818182908E+00    2.4483599188018857E+01
Au    5.2293911406775448E+00    1.1454443434000133E+01    2.0414907660271052E+01
Au    1.3546644182805551E+01    1.1460689023526944E+01    2.0415821428085419E+01
Au    3.1467220653086994E+00    9.3737189467141437E+00    2.4506940039542755E+01
Au    1.1409338190795060E+01    5.2750019654654743E+00    2.0280092064066778E+01
Au    1.1468195154207004E+01    1.3554534811385889E+01    2.0415109669537046E+01
Au    1.1457044252907208E+01    1.0630257219911012E+00    2.4508640055176350E+01
Au    7.3520384811691919E+00    9.3461580133102533E+00    2.0286411163725568E+01
Au    1.5640877548838688E+01    9.3843561354770504E+00    2.0415240326909981E+01
Au    3.1413033004723623E+00    1.1457157663660357E+01    2.2477439932692985E+01
Au    1.1458536192793362E+01    7.2989175710879284E+00    2.6566449994410331E+01
Au    1.1466987590226578E+01    1.5643757735381099E+01    2.6574967403390382E+01
Au    1.1444648823249599E+01    3.1758898336456030E+00    2.2425722809402355E+01
Au    7.3173580984347266E+00    1.1450736890350219E+01    2.6568749709924479E+01
Au    1.5630072273773290E+01    1.1455544430736426E+01    2.6573112751745104E+01
Au    5.2613103148878375E+00    5.2421698407744097E+00    2.2428073122308490E+01
Au    1.3544237523927386E+01    1.3543680972268799E+01    2.2479254386689842E+01
Au    1.3506882116666723E+01    5.2421016877079856E+00    2.2429442030974236E+01
Au    5.2251758083785225E+00    1.3541812743377234E+01    2.2477627317195690E+01
Au    5.2415327397116913E+00    7.2997085296490249E+00    2.4483390731074635E+01
Au    1.3540557426900493E+01    1.5641282677129343E+01    2.4519478562746691E+01
Au    1.3527887335200589E+01    7.2990602403625262E+00    2.4487008149471087E+01
Au    5.2291359868893004E+00    1.5641011699550274E+01    2.4517449132808920E+01
Au    7.3232471615770560E+00    5.2342519024220362E+00    2.4476782121225909E+01
Au    1.5629430910425789E+01    1.3541239401394192E+01    2.4521860178767572E+01
Au    1.5621767228705513E+01    5.2236315260520563E+00    2.4508431858540874E+01
Au    7.3113455954513453E+00    1.3538075319922530E+01    2.4506133831620367E+01
Au    7.3658300726722779E+00    7.3002438282506548E+00    2.2348972590418846E+01
Au    1.5641224827697611E+01    1.5641746643898621E+01    2.2493457759225141E+01
Au    1.5623242281018225E+01    7.2995821173150164E+00    2.2463816060233970E+01
Au    7.3072497484739420E+00    1.5643932101542227E+01    2.2476439443658130E+01
Au    5.2593700947075925E+00    9.3598647179061132E+00    2.2429383241622968E+01
Au    1.3513982891739690E+01    9.3621418581496147E+00    2.2433611861743820E+01
Au    9.3848427709533606E+00    5.2793993747489241E+00    2.2353675835244744E+01
Au    9.3845862795493638E+00    1.3540130104799671E+01    2.2461946559018376E+01
Au    5.2367333570632981E+00    1.1447335585546822E+01    2.4505190873486463E+01
Au    1.3532609667897441E+01    1.1448987917258638E+01    2.4508006183132427E+01
Au    9.3841882575060858E+00    7.2995040335644532E+00    2.4469217222991016E+01
Au    9.3839633733098182E+00    1.5645272292485277E+01    2.4513791776518836E+01
Au    7.3237054500446765E+00    9.3637130666368655E+00    2.4473261603430075E+01
Au    1.5623892921688650E+01    9.3739301018814150E+00    2.4508893383814684E+01
Au    1.1445425993751142E+01    5.2334238223612797E+00    2.4479065822233384E+01
Au    1.1457122075391318E+01    1.3539341541029009E+01    2.4507979052122604E+01
Au    7.3243065357501784E+00    1.1427826748270833E+01    2.2429201814712808E+01
Au    1.5629303765461641E+01    1.1457636061715146E+01    2.2479012852515908E+01
Au    1.1406758913220468E+01    7.3019746277016591E+00    2.2350917410864270E+01
Au    1.1461754193684950E+01    1.5644844120398192E+01    2.2477561249499495E+01
Au    9.3832634740034777E+00    9.3733267605642769E+00    2.6567555832191108E+01
Au    9.3850531631453826E+00    1.1469878521020156E+01    2.0355826197875043E+01
Au    1.1430538117189855E+01    9.3571591127214102E+00    2.0289707215715779E+01
Au    1.1448968959981306E+01    1.1451581256824001E+01    2.6570363752215954E+01
Au    9.3877970656664420E+00    9.3202499241299126E+00    2.2348130845106116E+01
Au    9.3846032118274376E+00    1.1443842461486206E+01    2.4482331787483247E+01
Au    1.1445962853379607E+01    9.3649346295734883E+00    2.4475144142271255E+01
Au    1.1447153850799461E+01    1.1431035521822519E+01    2.2431741776887716E+01
     &END COORD
     &KIND Au
       BASIS_SET SZV-MOLOPT-SR-GTH
       POTENTIAL GTH-PADE-q11
       &POTENTIAL
 1 0 10
  0.5900000000000000E+00 1  0.1160442790000000E+02
 3
  0.5211797500000001E+00 2  0.2538613590000000E+01 -0.1046136640000000E+01
  0.2701113200000000E+01
  0.6306130599999999E+00 2  0.3948527000000000E+00 -0.8695921300000000E+00
  0.2057830560000000E+01
  0.4407064300000000E+00 2 -0.4719069660000000E+01  0.7277708100000000E+00
 -0.1650429070000000E+01
         # Potential name:  GTH-PADE-Q11  for symbol:  AU
         # Potential read from the potential filename: GTH_POTENTIALS
       &END POTENTIAL
     &END KIND
     &KIND C
       BASIS_SET DZVP-MOLOPT-SR-GTH
       ELEMENT C
       POTENTIAL GTH-PBE-q4
       &POTENTIAL
 2 2
  0.3384712400000000E+00 2 -0.8803673979999999E+01  0.1339210850000000E+01
 2
  0.3025757500000000E+00 1  0.9622486650000001E+01
  0.2915069400000000E+00 0
         # Potential name:  GTH-PBE-Q4  for symbol:  C
         # Potential read from the potential filename: GTH_POTENTIALS
       &END POTENTIAL
     &END KIND
     &KIND S
       BASIS_SET DZVP-MOLOPT-SR-GTH
       ELEMENT S
       POTENTIAL GTH-PBE-q6
       &POTENTIAL
 2 4
  0.4200000000000000E+00 1 -0.5986260380000000E+01
 2
  0.3648203500000000E+00 2  0.1314354448000000E+02 -0.4241830450000000E+01
  0.5476179570000000E+01
  0.4094804800000000E+00 1  0.3700890570000000E+01
         # Potential name:  GTH-PBE-Q6  for symbol:  S
         # Potential read from the potential filename: GTH_POTENTIALS
       &END POTENTIAL
     &END KIND
     &KIND H
       BASIS_SET DZVP-MOLOPT-SR-GTH
       ELEMENT H
       POTENTIAL GTH-PBE-q1
       &POTENTIAL
 1
  0.2000000000000000E+00 2 -0.4178900440000000E+01  0.7244633100000000E+00
 0
         # Potential name:  GTH-PBE-Q1  for symbol:  H
         # Potential read from the potential filename: GTH_POTENTIALS
       &END POTENTIAL
     &END KIND
     &TOPOLOGY
       COORD_FILE_NAME input.xyz
       COORD_FILE_FORMAT  XYZ
       NUMBER_OF_ATOMS  268
       MULTIPLE_UNIT_CELL  1 1 1
       &CENTER_COORDINATES  T
       &END CENTER_COORDINATES
     &END TOPOLOGY
   &END SUBSYS
 &END FORCE_EVAL
