#SpinOrbit                .true.
#NonCollinearSpin         .true.
#SpinPolarized            .true.


SystemName            melamine    # Descriptive name of the system
SystemLabel           melamine    # Short name for naming files


# Species and atoms
NumberOfSpecies        5
NumberOfAtoms    183

%block ChemicalSpeciesLabel
 1 1 H
 2 6 C
 3 7 N
 4 79 Au
 5 79 Au_d
%endblock ChemicalSpeciesLabel

# Basis
%block PAO.Basis                 # Define Basis set
Au   1      0.00000
n=6   0   1   E     2.71398     3.29203
     5.62600
%endblock PAO.Basis

%block PS.lmax
 Au   1
%endblock PS.lmax

%block kgrid_Monkhorst_Pack
  2   0    0     0.0
  0   4    0     0.0
  0   0    1     0.0
%endblock kgrid_Monkhorst_Pack 
xc.functional         GGA           # Exchange-correlation functional
xc.authors            PBE             # Exchange-correlation version


MeshCutoff          200. Ry         # Mesh cutoff. real space mesh 

# SCF options
MaxSCFIterations       1000         # Maximum number of SCF iter
DM.MixingWeight       0.02            # New DM amount for next SCF cycle
DM.Tolerance          1.d-4         # Tolerance in maximum difference
DM.NumberPulay        25

SolutionMethod        Diagon       # OrderN or Diagon
ElectronicTemperature  150 K        # Temp. for Fermi smearing
#ProcessorY  5
#BlockSize   15

# ===========================================================
##For Smeagol-trans
InitTransport   F     #reset "nsc process" as siesta or not,'true' as siesta
EMTransport              T     #NEGF method or not
NSlices                  1    # the number of layers for x in mx
PeriodicTransp           T     #mx periodic calculation or not
#UseLeadGF    T    #see manual

#GF Integral Setup
NEnergReal                0      # E-points for NE
NEnergImCircle           16     # E-points for EQ-Circle
NEnergImLine             16      # E-points for EQ-Line
NPoles                   16      # E-points for EQ-Pole
Delta                    1.d-4
EnergLowestBound        -6.0d0  Ry   # Absolute value


#Bias Setup
VInitial                 0.0 eV
VFinal                   0.0 eV
NIVPoints                0
%block SaveBiasSteps
  0
%endblock SaveBiasSteps

#Fock shift Control(!!!!Vary Every Time while Smeagol-trans!!!!)
HartreeLeadsBottom        -5.26330853   eV    # Matlab: VHplot('0.lead.VH')
HartreeLeadsLeft           0.000  Ang           #The mx's atomic z-coordinates of the corresponding 'HartreeLeadsBottom' position at left
HartreeLeadsRight          0.000  Ang    # The mx's atomic z-coordinates of the corresponding 'HartreeLeadsBottom' position at right

##Transport Output Flags
TrCoefficients                 F   #generate '*.TRC' file or not
TransmissionOverk        T    #generate '*.TRC.k.up/down' file,containning infor about T(E,k)
NTransmPoints            100  
TRCScaleEf    T
InitTransmRange        -15.0 eV    #(!!!!Vary Every Time with respect to lead's Ef while Smeagol-trans!!!!)
FinalTransmRange        15.0 eV


SaveElectrostaticPotential    T
SaveRHO    T

#Sensible parameters for structural change
FullRamp   T
MixHamiltonian     F # F
ReadHamiltonian    F # F
DM.MixSCF1         F # F
DM.UseSaveDM   T

# MD options
MD.TypeOfRun            neb         # Type of dynamics = neb
MD.NumNEBsteps          60          # Maximum Number of NEB steps
MD.NumOfImages          9           # Number of Images ( intermediate structure )
MD.Kspring              0.02        # Spring force; default works well
MD.IndexOfNEB           60          # n>0 => CI-NEB from nth step
                                    # n>NumNEBsteps => IT-NEB
                                    # n=-1 => bisection-NEB
NEB.UseBroyden          .true.      # .true.  Broyden optimizer
                                    # .false. projected Verlet
MD.LengthTimeStep        0.3  fs    # time step for projected Verlet
NEB.SkipEdge            .true.     # Skip calculations of initial and
                                    #  final states ; UseSaveNEB must be .ture.
MD.MaxCGDispl           0.04 Ang    # Maximum atomic displacement
MD.MaxForceTol          0.06 eV/Ang # Tolerance of force for each images
MD.UseSaveNEB           .true.      # You can start from arbitary continuations

NEB.ReferEtot           .false.     # .true. for the SIESTA
                                    # .false. under the finite bias
NEB.InterpolationScheme  linear     # linear, polynomial or spline
NEB.derivative1          0.0        # In the case of spline, boundary consitions should be suplied
NEB.derivativeN          0.0        # If the endpoints are stable states, 0.0

MD.VariableCell          F           # Unit cell relaxation


%block GeometryConstraints
  position from 1 to 93
  position from 104 to 183
%endblock GeometryConstraints


#Force Options
EM.CalculateForces              T
EM.SetEBD  T

WriteForces      T
WriteCoorXmol     T   # Write Atoms coordinates
WriteMDXmol                     T
#WriteMDhistory                  T
WriteEigenvalues                F
Sigma.SVDTolZero  1.0d-7
EM.Timings T
Sigma.WriteToDisk              F     # Default value
WriteCoorStep   T

LatticeConstant  1.000 Ang

%block LatticeVectors
   12.7632770000  0.0000000000  0.0000000000
   0.0000000000  7.6579660000  0.0000000000
   0.0000000000  1.2763280000  32.6600000000
%endblock LatticeVectors

# Atomic coordinates
AtomicCoordinatesFormat     Ang 
%block AtomicCoordinatesAndAtomicSpecies
   0.0000000000  1.2763281800  0.0000000000 4
   2.5526558800  1.2763281800  0.0000000000 4
   5.1053109600  1.2763281800  0.0000000000 4
   7.6579664400  1.2763281800  0.0000000000 4
   10.2106219200  1.2763281800  0.0000000000 4
   0.0000000000  3.8289836600  0.0000000000 4
   2.5526558800  3.8289836600  0.0000000000 4
   5.1053109600  3.8289836600  0.0000000000 4
   7.6579664400  3.8289836600  0.0000000000 4
   10.2106219200  3.8289836600  0.0000000000 4
   0.0000000000  6.3816387000  0.0000000000 4
   2.5526558800  6.3816387000  0.0000000000 4
   5.1053109600  6.3816387000  0.0000000000 4
   7.6579664400  6.3816387000  0.0000000000 4
   10.2106219200  6.3816387000  0.0000000000 4
   1.2763281400  2.5526559200  1.8050000000 4
   3.8289832200  2.5526559200  1.8050000000 4
   6.3816387000  2.5526559200  1.8050000000 4
   8.9342941800  2.5526559200  1.8050000000 4
   11.4869496600  2.5526559200  1.8050000000 4
   1.2763281400  5.1053109600  1.8050000000 4
   3.8289832200  5.1053109600  1.8050000000 4
   6.3816387000  5.1053109600  1.8050000000 4
   8.9342941800  5.1053109600  1.8050000000 4
   11.4869496600  5.1053109600  1.8050000000 4
   1.2763281400  7.6579664400  1.8050000000 4
   3.8289832200  7.6579664400  1.8050000000 4
   6.3816387000  7.6579664400  1.8050000000 4
   8.9342941800  7.6579664400  1.8050000000 4
   11.4869496600  7.6579664400  1.8050000000 4
   0.0000000000  1.2763281800  3.6100000000 4
   2.5526558800  1.2763281800  3.6100000000 4
   5.1053109600  1.2763281800  3.6100000000 4
   7.6579664400  1.2763281800  3.6100000000 4
   10.2106219200  1.2763281800  3.6100000000 4
   0.0000000000  3.8289836600  3.6100000000 4
   2.5526558800  3.8289836600  3.6100000000 4
   5.1053109600  3.8289836600  3.6100000000 4
   7.6579664400  3.8289836600  3.6100000000 4
   10.2106219200  3.8289836600  3.6100000000 4
   0.0000000000  6.3816387000  3.6100000000 4
   2.5526558800  6.3816387000  3.6100000000 4
   5.1053109600  6.3816387000  3.6100000000 4
   7.6579664400  6.3816387000  3.6100000000 4
   10.2106219200  6.3816387000  3.6100000000 4
   1.2763281400  2.5526559200  5.4150000000 4
   3.8289832200  2.5526559200  5.4150000000 4
   6.3816387000  2.5526559200  5.4150000000 4
   8.9342941800  2.5526559200  5.4150000000 4
   11.4869496600  2.5526559200  5.4150000000 4
   1.2763281400  5.1053109600  5.4150000000 4
   3.8289832200  5.1053109600  5.4150000000 4
   6.3816387000  5.1053109600  5.4150000000 4
   8.9342941800  5.1053109600  5.4150000000 4
   11.4869496600  5.1053109600  5.4150000000 4
   1.2763281400  7.6579664400  5.4150000000 4
   3.8289832200  7.6579664400  5.4150000000 4
   6.3816387000  7.6579664400  5.4150000000 4
   8.9342941800  7.6579664400  5.4150000000 4
   11.4869496600  7.6579664400  5.4150000000 4
   0.0000000000  1.2763281800  7.2200000000 5
   2.5526558800  1.2763281800  7.2200000000 5
   5.1053109600  1.2763281800  7.2200000000 5
   7.6579664400  1.2763281800  7.2200000000 5
   10.2106219200  1.2763281800  7.2200000000 5
   0.0000000000  3.8289836600  7.2200000000 5
   2.5526558800  3.8289836600  7.2200000000 5
   5.1053109600  3.8289836600  7.2200000000 5
   7.6579664400  3.8289836600  7.2200000000 5
   10.2106219200  3.8289836600  7.2200000000 5
   0.0000000000  6.3816387000  7.2200000000 5
   2.5526558800  6.3816387000  7.2200000000 5
   5.1053109600  6.3816387000  7.2200000000 5
   7.6579664400  6.3816387000  7.2200000000 5
   10.2106219200  6.3816387000  7.2200000000 5
   1.2763281400  2.5526559200  9.0250000000 5
   3.8289832200  2.5526559200  9.0250000000 5
   6.3816387000  2.5526559200  9.0250000000 5
   8.9342941800  2.5526559200  9.0250000000 5
   11.4869496600  2.5526559200  9.0250000000 5
   1.2763281400  5.1053109600  9.0250000000 5
   3.8289832200  5.1053109600  9.0250000000 5
   6.3816387000  5.1053109600  9.0250000000 5
   8.9342941800  5.1053109600  9.0250000000 5
   11.4869496600  5.1053109600  9.0250000000 5
   1.2763281400  7.6579664400  9.0250000000 5
   3.8289832200  7.6579664400  9.0250000000 5
   6.3816387000  7.6579664400  9.0250000000 5
   8.9342941800  7.6579664400  9.0250000000 5
   11.4869496600  7.6579664400  9.0250000000 5
   4.0424494000  3.8865397400  11.0419517200 3
   8.7149542000  3.8882636400  11.0442407000 3
   6.3789507400  3.9085944200  11.0502278500 3
   5.1146840900  3.8638145300  13.1092294000 3
   7.5046270400  3.8587085100  13.0881026000 3
   6.4459411300  3.8392943900  15.1096257000 3
   5.1849744600  3.8872011700  11.7864851700 2
   7.5603141500  3.8868767200  11.7320600400 2
   6.2865764500  3.8545850000  13.8261971000 2
   3.2209952300  3.8760309600  11.6589959200 1
   9.5579593400  3.8766414900  11.6289515400 1
   5.5114681600  3.8361576200  15.5464815700 1
   8.3493744400  3.8437228200  13.6618027100 1
   6.3816388200  3.8289832900  20.0250000000 5
   5.1053114600  2.5526559700  21.8300000000 5
   7.6579665900  2.5526559700  21.8300000000 5
   5.1053114600  5.1053110600  21.8300000000 5
   7.6579665900  5.1053110600  21.8300000000 5
   1.2763281600  1.2763282000  23.6350000000 4
   3.8289836900  1.2763282000  23.6350000000 4
   6.3816388200  1.2763282000  23.6350000000 4
   8.9342943500  1.2763282000  23.6350000000 4
   11.4869498800  1.2763282000  23.6350000000 4
   1.2763281600  3.8289832900  23.6350000000 4
   3.8289836900  3.8289832900  23.6350000000 4
   6.3816388200  3.8289832900  23.6350000000 4
   8.9342943500  3.8289832900  23.6350000000 4
   11.4869498800  3.8289832900  23.6350000000 4
   1.2763281600  6.3816388200  23.6350000000 4
   3.8289836900  6.3816388200  23.6350000000 4
   6.3816388200  6.3816388200  23.6350000000 4
   8.9342943500  6.3816388200  23.6350000000 4
   11.4869498800  6.3816388200  23.6350000000 4
   0.0000000000  2.5526562300  25.4400000000 4
   2.5526559300  2.5526562300  25.4400000000 4
   5.1053110600  2.5526562300  25.4400000000 4
   7.6579665900  2.5526562300  25.4400000000 4
   10.2106221100  2.5526562300  25.4400000000 4
   0.0000000000  5.1053117600  25.4400000000 4
   2.5526559300  5.1053117600  25.4400000000 4
   5.1053110600  5.1053117600  25.4400000000 4
   7.6579665900  5.1053117600  25.4400000000 4
   10.2106221100  5.1053117600  25.4400000000 4
   0.0000000000  7.6579668500  25.4400000000 4
   2.5526559300  7.6579668500  25.4400000000 4
   5.1053110600  7.6579668500  25.4400000000 4
   7.6579665900  7.6579668500  25.4400000000 4
   10.2106221100  7.6579668500  25.4400000000 4
   1.2763281600  3.8289839900  27.2450000000 4
   3.8289832900  3.8289839900  27.2450000000 4
   6.3816388200  3.8289839900  27.2450000000 4
   8.9342943500  3.8289839900  27.2450000000 4
   11.4869498800  3.8289839900  27.2450000000 4
   1.2763281600  6.3816390800  27.2450000000 4
   3.8289832900  6.3816390800  27.2450000000 4
   6.3816388200  6.3816390800  27.2450000000 4
   8.9342943500  6.3816390800  27.2450000000 4
   11.4869498800  6.3816390800  27.2450000000 4
   1.2763281600  8.9342946100  27.2450000000 4
   3.8289832900  8.9342946100  27.2450000000 4
   6.3816388200  8.9342946100  27.2450000000 4
   8.9342943500  8.9342946100  27.2450000000 4
   11.4869498800  8.9342946100  27.2450000000 4
   0.0000000000  2.5526562300  29.0500000000 4
   2.5526559300  2.5526562300  29.0500000000 4
   5.1053110600  2.5526562300  29.0500000000 4
   7.6579665900  2.5526562300  29.0500000000 4
   10.2106221100  2.5526562300  29.0500000000 4
   0.0000000000  5.1053117600  29.0500000000 4
   2.5526559300  5.1053117600  29.0500000000 4
   5.1053110600  5.1053117600  29.0500000000 4
   7.6579665900  5.1053117600  29.0500000000 4
   10.2106221100  5.1053117600  29.0500000000 4
   0.0000000000  7.6579668500  29.0500000000 4
   2.5526559300  7.6579668500  29.0500000000 4
   5.1053110600  7.6579668500  29.0500000000 4
   7.6579665900  7.6579668500  29.0500000000 4
   10.2106221100  7.6579668500  29.0500000000 4
   1.2763281600  3.8289839900  30.8550000000 4
   3.8289832900  3.8289839900  30.8550000000 4
   6.3816388200  3.8289839900  30.8550000000 4
   8.9342943500  3.8289839900  30.8550000000 4
   11.4869498800  3.8289839900  30.8550000000 4
   1.2763281600  6.3816390800  30.8550000000 4
   3.8289832900  6.3816390800  30.8550000000 4
   6.3816388200  6.3816390800  30.8550000000 4
   8.9342943500  6.3816390800  30.8550000000 4
   11.4869498800  6.3816390800  30.8550000000 4
   1.2763281600  8.9342946100  30.8550000000 4
   3.8289832900  8.9342946100  30.8550000000 4
   6.3816388200  8.9342946100  30.8550000000 4
   8.9342943500  8.9342946100  30.8550000000 4
   11.4869498800  8.9342946100  30.8550000000 4
%endblock AtomicCoordinatesAndAtomicSpecies

