 # Version information for this restart file 
 # current date 2022-04-25 23:48:58.811
 # current working dir /rds/general/user/jj1921/home/junction/ortho/cell_65
 # Program compiled at                              Thu 12 Jul 13:52:12 BST 2018
 # Program compiled on                                      build-2.hpc.ic.ac.uk
 # Program compiled for                                       Linux-x86-64-intel
 # Source code revision number                                         svn:18464
 &GLOBAL
   PRINT_LEVEL  MEDIUM
   PROJECT_NAME Au_junction
   RUN_TYPE  CELL_OPT
 &END GLOBAL
 &MOTION
   &CELL_OPT
     OPTIMIZER  BFGS
     STEP_START_VAL  2
     TYPE  DIRECT_CELL_OPT
     KEEP_ANGLES  T
     KEEP_SYMMETRY  T
     CONSTRAINT  XY
   &END CELL_OPT
   &CONSTRAINT
     &FIXED_ATOMS
       COMPONENTS_TO_FIX  XYZ
       LIST  1..36
     &END FIXED_ATOMS
   &END CONSTRAINT
   &PRINT
     &TRAJECTORY  SILENT
       &EACH
         CELL_OPT  1
       &END EACH
     &END TRAJECTORY
   &END PRINT
 &END MOTION
 &FORCE_EVAL
   METHOD  QS
   STRESS_TENSOR  ANALYTICAL
   &DFT
     BASIS_SET_FILE_NAME /rds/general/user/jj1921/home/BASIS_COM_MOLOPT_GTH
     POTENTIAL_FILE_NAME /rds/general/user/jj1921/home/GTH_POTENTIALS
     &SCF
       MAX_SCF  500
       EPS_SCF     9.9999999999999995E-08
       CHOLESKY  INVERSE
       SCF_GUESS  ATOMIC
       ADDED_MOS  20
       &DIAGONALIZATION  T
         ALGORITHM  STANDARD
       &END DIAGONALIZATION
       &SMEAR  T
         METHOD  FERMI_DIRAC
         ELECTRONIC_TEMPERATURE     3.0000000000000000E+02
       &END SMEAR
       &MIXING  T
         METHOD  BROYDEN_MIXING
         ALPHA     4.0000000000000002E-01
         BETA     5.0000000000000000E-01
         NBUFFER  8
       &END MIXING
     &END SCF
     &QS
       EPS_DEFAULT     1.0000000000000000E-14
       METHOD  GPW
     &END QS
     &MGRID
       NGRIDS  4
       CUTOFF     5.0000000000000000E+02
       REL_CUTOFF     4.0000000000000000E+01
     &END MGRID
     &XC
       DENSITY_CUTOFF     1.0000000000000000E-10
       GRADIENT_CUTOFF     1.0000000000000000E-10
       TAU_CUTOFF     1.0000000000000000E-10
       &XC_FUNCTIONAL  NO_SHORTCUT
         &PBE  T
         &END PBE
       &END XC_FUNCTIONAL
     &END XC
     &KPOINTS
       SCHEME MONKHORST-PACK 4 4 1
       FULL_GRID  T
     &END KPOINTS
   &END DFT
   &SUBSYS
     &CELL
       A     1.7811878396732897E+01    0.0000000000000000E+00    0.0000000000000000E+00
       B     0.0000000000000000E+00    1.5425539180689926E+01    0.0000000000000000E+00
       C     0.0000000000000000E+00    0.0000000000000000E+00    3.3981143884139364E+01
       PERIODIC  XYZ
       MULTIPLE_UNIT_CELL  1 1 1
       SYMMETRY  ORTHORHOMBIC
     &END CELL
     &COORD
Au    1.4843231999999995E+00    8.5697440000000003E-01    0.0000000000000000E+00
Au    4.4529695999999985E+00    8.5697440000000003E-01    0.0000000000000000E+00
Au    7.4216159999999975E+00    8.5697440000000003E-01    0.0000000000000000E+00
Au    1.0390262399999997E+01    8.5697440000000003E-01    0.0000000000000000E+00
Au    1.3358908799999996E+01    8.5697440000000003E-01    0.0000000000000000E+00
Au    1.6327555199999995E+01    8.5697440000000003E-01    0.0000000000000000E+00
Au    0.0000000000000000E+00    3.4278976000000001E+00    0.0000000000000000E+00
Au    2.9686463999999990E+00    3.4278976000000001E+00    0.0000000000000000E+00
Au    5.9372927999999980E+00    3.4278976000000001E+00    0.0000000000000000E+00
Au    8.9059391999999971E+00    3.4278976000000001E+00    0.0000000000000000E+00
Au    1.1874585599999996E+01    3.4278976000000001E+00    0.0000000000000000E+00
Au    1.4843231999999995E+01    3.4278976000000001E+00    0.0000000000000000E+00
Au    1.4843231999999995E+00    5.9988207899999999E+00    0.0000000000000000E+00
Au    4.4529695999999985E+00    5.9988207899999999E+00    0.0000000000000000E+00
Au    7.4216159999999975E+00    5.9988207899999999E+00    0.0000000000000000E+00
Au    1.0390262399999997E+01    5.9988207899999999E+00    0.0000000000000000E+00
Au    1.3358908799999996E+01    5.9988207899999999E+00    0.0000000000000000E+00
Au    1.6327555199999995E+01    5.9988207899999999E+00    0.0000000000000000E+00
Au    0.0000000000000000E+00    8.5697439900000010E+00    0.0000000000000000E+00
Au    2.9686463999999990E+00    8.5697439900000010E+00    0.0000000000000000E+00
Au    5.9372927999999980E+00    8.5697439900000010E+00    0.0000000000000000E+00
Au    8.9059391999999971E+00    8.5697439900000010E+00    0.0000000000000000E+00
Au    1.1874585599999996E+01    8.5697439900000010E+00    0.0000000000000000E+00
Au    1.4843231999999995E+01    8.5697439900000010E+00    0.0000000000000000E+00
Au    1.4843231999999995E+00    1.1140667190000000E+01    0.0000000000000000E+00
Au    4.4529695999999985E+00    1.1140667190000000E+01    0.0000000000000000E+00
Au    7.4216159999999975E+00    1.1140667190000000E+01    0.0000000000000000E+00
Au    1.0390262399999997E+01    1.1140667190000000E+01    0.0000000000000000E+00
Au    1.3358908799999996E+01    1.1140667190000000E+01    0.0000000000000000E+00
Au    1.6327555199999995E+01    1.1140667190000000E+01    0.0000000000000000E+00
Au    0.0000000000000000E+00    1.3711590380000002E+01    0.0000000000000000E+00
Au    2.9686463999999990E+00    1.3711590380000002E+01    0.0000000000000000E+00
Au    5.9372927999999980E+00    1.3711590380000002E+01    0.0000000000000000E+00
Au    8.9059391999999971E+00    1.3711590380000002E+01    0.0000000000000000E+00
Au    1.1874585599999996E+01    1.3711590380000002E+01    0.0000000000000000E+00
Au    1.4843231999999995E+01    1.3711590380000002E+01    0.0000000000000000E+00
Au    7.0960801459713465E-10    1.7148025170549794E+00    2.4198741940992980E+00
Au    2.9687147071778308E+00    1.7134200540156415E+00    2.4192045334655248E+00
Au    5.9371439293403432E+00    1.7148850516985781E+00    2.4197767573176940E+00
Au    8.9059391999958635E+00    1.7157177819515526E+00    2.4209660868988312E+00
Au    1.1874734470660476E+01    1.7148850517208221E+00    2.4197767573747160E+00
Au    1.4843163692350236E+01    1.7134200540042435E+00    2.4192045335840611E+00
Au    1.4838820514560214E+00    4.2848327777505411E+00    2.4190302085249638E+00
Au    4.4572754281289377E+00    4.2876748114231855E+00    2.4247494911851861E+00
Au    7.4252158380018862E+00    4.2859387264004383E+00    2.4233294678633088E+00
Au    1.0386662561959346E+01    4.2859387263915458E+00    2.4233294678557860E+00
Au    1.3354602971807392E+01    4.2876748114139609E+00    2.4247494911469851E+00
Au    1.6327996348259109E+01    4.2848327777258444E+00    2.4190302085294118E+00
Au    6.7766061503934926E-10    6.8556465989463522E+00    2.4193545077256653E+00
Au    2.9696539421767869E+00    6.8553979715546554E+00    2.4194648759319519E+00
Au    5.9396128953419165E+00    6.8583430225693300E+00    2.4234458331676354E+00
Au    8.9059391999569080E+00    6.8553133038655618E+00    2.4174331777492060E+00
Au    1.1872265504748501E+01    6.8583430225482420E+00    2.4234458331999043E+00
Au    1.4842224457458762E+01    6.8553979715402491E+00    2.4194648761598385E+00
Au    1.4849525837788562E+00    9.4269649794283765E+00    2.4198537737865662E+00
Au    4.4548044406774938E+00    9.4255649093955434E+00    2.4204698956380870E+00
Au    7.4204657449743596E+00    9.4234071007709037E+00    2.4232875384151127E+00
Au    1.0391412654994014E+01    9.4234071007723355E+00    2.4232875384109653E+00
Au    1.3357073959249012E+01    9.4255649093894913E+00    2.4204698958417303E+00
Au    1.6326925815928263E+01    9.4269649794054651E+00    2.4198537739575485E+00
Au    7.3945058168318099E-10    1.1997372538769669E+01    2.4197855463742295E+00
Au    2.9688051689880743E+00    1.1997693937181344E+01    2.4195360016462915E+00
Au    5.9377500076394591E+00    1.1996475233336730E+01    2.4200113093148610E+00
Au    8.9059392000325861E+00    1.1992820631279008E+01    2.4250944587767331E+00
Au    1.1874128392436546E+01    1.1996475233347343E+01    2.4200113092248272E+00
Au    1.4843073230621641E+01    1.1997693937185627E+01    2.4195360016504450E+00
Au    1.4842195396415407E+00    1.4568674728120028E+01    2.4198552223333860E+00
Au    4.4529192255202767E+00    1.4568736575280409E+01    2.4196847051014299E+00
Au    7.4218217713079966E+00    1.4568838453911621E+01    2.4192029395619095E+00
Au    1.0390056628689681E+01    1.4568838453909578E+01    2.4192029395996197E+00
Au    1.3358959174469366E+01    1.4568736575310256E+01    2.4196847051683639E+00
Au    1.6327658860117591E+01    1.4568674728099927E+01    2.4198552224441645E+00
Au    5.5724160368443070E-10    2.3981243361782933E-04    4.8587947703820200E+00
Au    2.9688185898378894E+00    1.0953873444262619E-04    4.8585752581690640E+00
Au    5.9372249052022470E+00   -1.8600297461825456E-04    4.8592081835306917E+00
Au    8.9059392000162436E+00   -1.8796720786356651E-04    4.8586070961299619E+00
Au    1.1874653494800842E+01   -1.8600298221749679E-04    4.8592081835378771E+00
Au    1.4843059809789764E+01    1.0953871961610936E-04    4.8585752582405446E+00
Au    1.4836899614924099E+00    2.5704108493898654E+00    4.8590415081656930E+00
Au    4.4522155059547881E+00    2.5693385011369747E+00    4.8582827463147646E+00
Au    7.4191109607965089E+00    2.5643257786990938E+00    4.8582596942970913E+00
Au    1.0392767439191536E+01    2.5643257787060074E+00    4.8582596942930811E+00
Au    1.3359662894032516E+01    2.5693385011322616E+00    4.8582827463601568E+00
Au    1.6328188438336941E+01    2.5704108494405800E+00    4.8590415084631742E+00
Au    5.5881946272267193E-10    5.1416619708776725E+00    4.8586504926260314E+00
Au    2.9670008728583324E+00    5.1417394406993431E+00    4.8583650347700926E+00
Au    5.9340799479338102E+00    5.1397452319743646E+00    4.8944860865363404E+00
Au    8.9059391999961441E+00    5.1192770900473299E+00    4.8839885053529102E+00
Au    1.1877798452108673E+01    5.1397452319744810E+00    4.8944860864501596E+00
Au    1.4844877526793173E+01    5.1417394407174202E+00    4.8583650348506158E+00
Au    1.4847748897361435E+00    7.7131245689054477E+00    4.8591254424537311E+00
Au    4.4467532389291522E+00    7.7137740783624738E+00    4.8584869453757120E+00
Au    7.4016535552443923E+00    7.7241528276869600E+00    4.8832631192191291E+00
Au    1.0410224844729797E+01    7.7241528277262201E+00    4.8832631191622289E+00
Au    1.3365125161109301E+01    7.7137740783812321E+00    4.8584869454285924E+00
Au    1.6327103510091185E+01    7.7131245689802022E+00    4.8591254427671577E+00
Au    5.4415211857903426E-10    1.0282906865389094E+01    4.8585952166028674E+00
Au    2.9680816343340934E+00    1.0284190539910453E+01    4.8586441476217335E+00
Au    5.9326305817880103E+00    1.0288416922849132E+01    4.8583735685700420E+00
Au    8.9059391999948989E+00    1.0286731451275578E+01    4.8944701139783726E+00
Au    1.1879247818214601E+01    1.0288416922850807E+01    4.8583735685945131E+00
Au    1.4843796765299928E+01    1.0284190539891830E+01    4.8586441477053759E+00
Au    1.4852938926453603E+00    1.2854594379487162E+01    4.8585424997425992E+00
Au    4.4526320951954181E+00    1.2854239797643988E+01    4.8589434387281907E+00
Au    7.4209294703150999E+00    1.2856712630766008E+01    4.8581634693381011E+00
Au    1.0390948929763766E+01    1.2856712630764145E+01    4.8581634693186482E+00
Au    1.3359246304868840E+01    1.2854239797663826E+01    4.8589434387310666E+00
Au    1.6326584507242746E+01    1.2854594379555859E+01    4.8585425000247042E+00
Au    7.4522797716889162E+00    6.0161329333954994E+00    7.2512737897667083E+00
Au    1.0359598628316649E+01    6.0161329333659515E+00    7.2512737898106492E+00
Au    8.9059391999546289E+00    8.5344992067642167E+00    7.2508583035934011E+00
Au    8.9059392000010149E+00    6.8557791606603269E+00    9.4420160570418510E+00
Au    8.9059391999144637E+00    6.8556705753126481E+00    1.2080814256079544E+01
Au    8.9059392000994819E+00    6.8564460917528933E+00    1.4557761346724803E+01
Au    8.9059391999892963E+00    6.8557643974283673E+00    1.6990558290732459E+01
Au    8.9059391999308932E+00    6.8551244255373538E+00    1.9422862761960033E+01
Au    8.9059392000112823E+00    6.8559601733917468E+00    2.1899109158697716E+01
Au    8.9059391999793096E+00    6.8558832090792894E+00    2.4537347889301721E+01
Au    8.9059391999870012E+00    5.1774858186315305E+00    2.6729648541829278E+01
Au    7.4527851877673150E+00    7.6951227485702542E+00    2.6728940386391912E+01
Au    1.0359093212346671E+01    7.6951227484919427E+00    2.6728940386425968E+01
Au    5.7038426673852150E-10    1.7136948714864033E+00    2.9122931616988438E+01
Au    2.9689354884520838E+00    1.7146324698515070E+00    2.9121847398101920E+01
Au    5.9348331277840227E+00    1.7129889451926463E+00    2.9123558829410094E+01
Au    8.9059392000323108E+00    1.7093837120827577E+00    2.9120295969318409E+01
Au    1.1877045272316678E+01    1.7129889451817144E+00    2.9123558829419046E+01
Au    1.4842942911265970E+01    1.7146324698734385E+00    2.9121847398036913E+01
Au    1.4855319721132103E+00    4.2844426725961631E+00    2.9122161216245750E+01
Au    4.4500855043032184E+00    4.2830967305418586E+00    2.9125342374381290E+01
Au    7.4232741403867024E+00    4.2728072272809801E+00    2.9093564486256767E+01
Au    1.0388604259600514E+01    4.2728072272567337E+00    2.9093564486256607E+01
Au    1.3361792895659409E+01    4.2830967305337220E+00    2.9125342374381937E+01
Au    1.6326346427716530E+01    4.2844426725299387E+00    2.9122161215954311E+01
Au    5.0242970757381355E-10    6.8565671102165107E+00    2.9122258150731312E+01
Au    2.9670623271731080E+00    6.8550439623785362E+00    2.9123082277793618E+01
Au    5.9272945228719705E+00    6.8635938134831811E+00    2.9094289558192504E+01
Au    8.9059391999680173E+00    6.8562277858693843E+00    2.9110024924315947E+01
Au    1.1884583877177135E+01    6.8635938135312546E+00    2.9094289558270056E+01
Au    1.4844816072495155E+01    6.8550439623954125E+00    2.9123082277640503E+01
Au    1.4835197014412305E+00    9.4267400013383558E+00    2.9122132113196994E+01
Au    4.4493117632637906E+00    9.4289365677732118E+00    2.9119880208513901E+01
Au    7.4100290013463299E+00    9.4316247215768811E+00    2.9093862493391249E+01
Au    1.0401849398673399E+01    9.4316247215748330E+00    2.9093862493378666E+01
Au    1.3362566636682368E+01    9.4289365677463604E+00    2.9119880208570848E+01
Au    1.6328358698415794E+01    9.4267400012759417E+00    2.9122132112943259E+01
Au    5.3244432338703390E-10    1.1997746583568258E+01    2.9122414978707479E+01
Au    2.9686353809966439E+00    1.1997950184234869E+01    2.9122348439290871E+01
Au    5.9373338087642695E+00    1.2000099934835237E+01    2.9123512062489215E+01
Au    8.9059391999716286E+00    1.2001104017510535E+01    2.9125715982106811E+01
Au    1.1874544591230318E+01    1.2000099934816955E+01    2.9123512062486824E+01
Au    1.4843243018631583E+01    1.1997950184247109E+01    2.9122348439176523E+01
Au    1.4840827905621781E+00    1.4567862633804060E+01    2.9122621573859821E+01
Au    4.4534035262595095E+00    1.4568671237142595E+01    2.9122281095812742E+01
Au    7.4216179398992139E+00    1.4568518161021220E+01    2.9121807135392697E+01
Au    1.0390260460096748E+01    1.4568518161017275E+01    2.9121807135375910E+01
Au    1.3358474873687854E+01    1.4568671237148928E+01    2.9122281095817407E+01
Au    1.6327795609277317E+01    1.4567862633730549E+01    2.9122621573608733E+01
Au    7.1075769675713428E-10   -3.6530925402888204E-04    3.1561291434587233E+01
Au    2.9689025390869470E+00    4.7569506915413591E-04    3.1561243438604379E+01
Au    5.9372012102783360E+00   -2.5246837066683012E-04    3.1561779643250446E+01
Au    8.9059392000043047E+00    1.4855387286075901E-03    3.1559951087095381E+01
Au    1.1874677189734047E+01   -2.5246837985245016E-04    3.1561779643225190E+01
Au    1.4842975860457942E+01    4.7569507119287472E-04    3.1561243438567850E+01
Au    1.4849425711283970E+00    2.5714017448181177E+00    3.1561406686663663E+01
Au    4.4535795954290238E+00    2.5703906652739197E+00    3.1561775355048621E+01
Au    7.4203566357457849E+00    2.5738556153014689E+00    3.1560067423668571E+01
Au    1.0391521764313667E+01    2.5738556153362353E+00    3.1560067423663067E+01
Au    1.3358298804587200E+01    2.5703906652850845E+00    3.1561775355184214E+01
Au    1.6326935828699416E+01    2.5714017448300384E+00    3.1561406686651502E+01
Au    6.5545447346086289E-10    5.1416699583185883E+00    3.1561257530206781E+01
Au    2.9685254394167622E+00    5.1422058953164624E+00    3.1561991805000055E+01
Au    5.9379932252789827E+00    5.1423241019338430E+00    3.1553890982029500E+01
Au    8.9059391999578992E+00    5.1469111895753628E+00    3.1561370271897879E+01
Au    1.1873885174777026E+01    5.1423241019113668E+00    3.1553890982021141E+01
Au    1.4843352960118178E+01    5.1422058953169403E+00    3.1561991804774777E+01
Au    1.4842740019799789E+00    7.7127753086509445E+00    3.1561919307681894E+01
Au    4.4549001520964797E+00    7.7108004769492586E+00    3.1560406138422199E+01
Au    7.4261385517329632E+00    7.7103820897165640E+00    3.1561296411736983E+01
Au    1.0385739848247034E+01    7.7103820897177160E+00    3.1561296411701623E+01
Au    1.3356978247961061E+01    7.7108004769435983E+00    3.1560406138460245E+01
Au    1.6327604397812884E+01    7.7127753086760515E+00    3.1561919307620958E+01
Au    6.8922363537539254E-10    1.0283943279939793E+01    3.1561431632280403E+01
Au    2.9703515902761159E+00    1.0282501763986790E+01    3.1560770502855274E+01
Au    5.9398692843896344E+00    1.0283126152884140E+01    3.1560197129958457E+01
Au    8.9059391999785760E+00    1.0282820797376923E+01    3.1554339435551071E+01
Au    1.1872009115597601E+01    1.0283126152884643E+01    3.1560197129994869E+01
Au    1.4841526809199197E+01    1.0282501763994714E+01    3.1560770502783413E+01
Au    1.4842782228970866E+00    1.2854650274198441E+01    3.1561686752542133E+01
Au    4.4526603687865602E+00    1.2854547440215658E+01    3.1561556729691347E+01
Au    7.4212804345415053E+00    1.2854053272542673E+01    3.1561733524460756E+01
Au    1.0390597965446096E+01    1.2854053272553323E+01    3.1561733524404509E+01
Au    1.3359218031162797E+01    1.2854547440188865E+01    3.1561556729711988E+01
Au    1.6327600176848897E+01    1.2854650274207236E+01    3.1561686752488608E+01
     &END COORD
     &KIND Au
       BASIS_SET TZVP-MOLOPT-SR-GTH-q11
       ELEMENT Au
       POTENTIAL GTH-PBE-q11
       &POTENTIAL
 1 0 10
  0.5900000000000000E+00 1  0.1051717881000000E+02
 3
  0.5438473300000000E+00 2  0.5786811030000000E+01 -0.2250679660000000E+01
  0.2905614950000000E+01
  0.6091729800000000E+00 2  0.4284048730000000E+01 -0.4071285200000000E+01
  0.4817209620000000E+01
  0.4373092200000000E+00 2 -0.7403281240000000E+01  0.3010193070000000E+01
 -0.3413238110000000E+01
         # Potential name:  GTH-PBE-Q11  for symbol:  AU
         # Potential read from the potential filename: /rds/general/user/jj1921/home/GTH_POTENTIALS
       &END POTENTIAL
     &END KIND
     &TOPOLOGY
       COORD_FILE_NAME junction_65.xyz
       COORD_FILE_FORMAT  XYZ
       NUMBER_OF_ATOMS  193
       MULTIPLE_UNIT_CELL  1 1 1
     &END TOPOLOGY
   &END SUBSYS
   &PRINT
     &TOTAL_NUMBERS  ON
     &END TOTAL_NUMBERS
   &END PRINT
 &END FORCE_EVAL
