 # Version information for this restart file 
 # current date 2022-05-05 05:29:24.803
 # current working dir /rds/general/user/jj1921/home/junction/ortho/cell_65
 # Program compiled at                              Thu 12 Jul 13:52:12 BST 2018
 # Program compiled on                                      build-2.hpc.ic.ac.uk
 # Program compiled for                                       Linux-x86-64-intel
 # Source code revision number                                         svn:18464
 &GLOBAL
   PRINT_LEVEL  MEDIUM
   PROJECT_NAME Au_junction
   RUN_TYPE  CELL_OPT
 &END GLOBAL
 &MOTION
   &CELL_OPT
     OPTIMIZER  BFGS
     STEP_START_VAL  138
     TYPE  DIRECT_CELL_OPT
     KEEP_ANGLES  T
     KEEP_SYMMETRY  T
     CONSTRAINT  XY
   &END CELL_OPT
   &CONSTRAINT
     &FIXED_ATOMS
       COMPONENTS_TO_FIX  XYZ
       LIST  1..36
     &END FIXED_ATOMS
   &END CONSTRAINT
   &PRINT
     &TRAJECTORY  SILENT
       &EACH
         CELL_OPT  1
       &END EACH
     &END TRAJECTORY
   &END PRINT
 &END MOTION
 &FORCE_EVAL
   METHOD  QS
   STRESS_TENSOR  ANALYTICAL
   &DFT
     BASIS_SET_FILE_NAME /rds/general/user/jj1921/home/BASIS_COM_MOLOPT_GTH
     POTENTIAL_FILE_NAME /rds/general/user/jj1921/home/GTH_POTENTIALS
     &SCF
       MAX_SCF  500
       EPS_SCF     9.9999999999999995E-08
       CHOLESKY  INVERSE
       SCF_GUESS  ATOMIC
       ADDED_MOS  20
       &DIAGONALIZATION  T
         ALGORITHM  STANDARD
       &END DIAGONALIZATION
       &SMEAR  T
         METHOD  FERMI_DIRAC
         ELECTRONIC_TEMPERATURE     3.0000000000000000E+02
       &END SMEAR
       &MIXING  T
         METHOD  BROYDEN_MIXING
         ALPHA     4.0000000000000002E-01
         BETA     5.0000000000000000E-01
         NBUFFER  8
       &END MIXING
     &END SCF
     &QS
       EPS_DEFAULT     1.0000000000000000E-14
       METHOD  GPW
     &END QS
     &MGRID
       NGRIDS  4
       CUTOFF     5.0000000000000000E+02
       REL_CUTOFF     4.0000000000000000E+01
     &END MGRID
     &XC
       DENSITY_CUTOFF     1.0000000000000000E-10
       GRADIENT_CUTOFF     1.0000000000000000E-10
       TAU_CUTOFF     1.0000000000000000E-10
       &XC_FUNCTIONAL  NO_SHORTCUT
         &PBE  T
         &END PBE
       &END XC_FUNCTIONAL
     &END XC
     &KPOINTS
       SCHEME MONKHORST-PACK 4 4 1
       FULL_GRID  T
     &END KPOINTS
   &END DFT
   &SUBSYS
     &CELL
       A     1.7811878396732908E+01    0.0000000000000000E+00    0.0000000000000000E+00
       B     0.0000000000000000E+00    1.5425539180689926E+01    0.0000000000000000E+00
       C     0.0000000000000000E+00    0.0000000000000000E+00    3.2357436212373706E+01
       PERIODIC  XYZ
       MULTIPLE_UNIT_CELL  1 1 1
       SYMMETRY  ORTHORHOMBIC
     &END CELL
     &COORD
Au    1.4843231999999993E+00    8.5697439999999980E-01    0.0000000000000000E+00
Au    4.4529695999999976E+00    8.5697439999999980E-01    0.0000000000000000E+00
Au    7.4216159999999967E+00    8.5697439999999980E-01    0.0000000000000000E+00
Au    1.0390262399999999E+01    8.5697439999999980E-01    0.0000000000000000E+00
Au    1.3358908799999995E+01    8.5697439999999980E-01    0.0000000000000000E+00
Au    1.6327555199999992E+01    8.5697439999999980E-01    0.0000000000000000E+00
Au    0.0000000000000000E+00    3.4278975999999992E+00    0.0000000000000000E+00
Au    2.9686463999999986E+00    3.4278975999999992E+00    0.0000000000000000E+00
Au    5.9372927999999972E+00    3.4278975999999992E+00    0.0000000000000000E+00
Au    8.9059391999999953E+00    3.4278975999999992E+00    0.0000000000000000E+00
Au    1.1874585599999994E+01    3.4278975999999992E+00    0.0000000000000000E+00
Au    1.4843231999999993E+01    3.4278975999999992E+00    0.0000000000000000E+00
Au    1.4843231999999993E+00    5.9988207899999981E+00    0.0000000000000000E+00
Au    4.4529695999999976E+00    5.9988207899999981E+00    0.0000000000000000E+00
Au    7.4216159999999967E+00    5.9988207899999981E+00    0.0000000000000000E+00
Au    1.0390262399999999E+01    5.9988207899999981E+00    0.0000000000000000E+00
Au    1.3358908799999995E+01    5.9988207899999981E+00    0.0000000000000000E+00
Au    1.6327555199999992E+01    5.9988207899999981E+00    0.0000000000000000E+00
Au    0.0000000000000000E+00    8.5697439900000010E+00    0.0000000000000000E+00
Au    2.9686463999999986E+00    8.5697439900000010E+00    0.0000000000000000E+00
Au    5.9372927999999972E+00    8.5697439900000010E+00    0.0000000000000000E+00
Au    8.9059391999999953E+00    8.5697439900000010E+00    0.0000000000000000E+00
Au    1.1874585599999994E+01    8.5697439900000010E+00    0.0000000000000000E+00
Au    1.4843231999999993E+01    8.5697439900000010E+00    0.0000000000000000E+00
Au    1.4843231999999993E+00    1.1140667189999997E+01    0.0000000000000000E+00
Au    4.4529695999999976E+00    1.1140667189999997E+01    0.0000000000000000E+00
Au    7.4216159999999967E+00    1.1140667189999997E+01    0.0000000000000000E+00
Au    1.0390262399999999E+01    1.1140667189999997E+01    0.0000000000000000E+00
Au    1.3358908799999995E+01    1.1140667189999997E+01    0.0000000000000000E+00
Au    1.6327555199999992E+01    1.1140667189999997E+01    0.0000000000000000E+00
Au    0.0000000000000000E+00    1.3711590380000004E+01    0.0000000000000000E+00
Au    2.9686463999999986E+00    1.3711590380000004E+01    0.0000000000000000E+00
Au    5.9372927999999972E+00    1.3711590380000004E+01    0.0000000000000000E+00
Au    8.9059391999999953E+00    1.3711590380000004E+01    0.0000000000000000E+00
Au    1.1874585599999994E+01    1.3711590380000004E+01    0.0000000000000000E+00
Au    1.4843231999999993E+01    1.3711590380000004E+01    0.0000000000000000E+00
Au    9.8515625260199280E-08    1.6937213223785921E+00    2.4137463182471635E+00
Au    2.9560291861114503E+00    1.6974399628117589E+00    2.4090473702301964E+00
Au    5.9196141797166719E+00    1.7120146701948349E+00    2.4069732862228634E+00
Au    8.9059391762546074E+00    1.7334549880811598E+00    2.4204177347882134E+00
Au    1.1892264265944242E+01    1.7120145928917814E+00    2.4069732222387867E+00
Au    1.4855849408049902E+01    1.6974397821464973E+00    2.4090474079784490E+00
Au    1.4790347325435855E+00    4.2621867256033248E+00    2.4079158686611923E+00
Au    4.4457219567103738E+00    4.2764233820517124E+00    2.4327211202573507E+00
Au    7.4064977047817990E+00    4.2860655787099669E+00    2.4212384800289444E+00
Au    1.0405380579784410E+01    4.2860656165234827E+00    2.4212386095921361E+00
Au    1.3366156997947538E+01    4.2764230529903848E+00    2.4327203049269617E+00
Au    1.6332844064172015E+01    4.2621867162100235E+00    2.4079158894615400E+00
Au    8.0214469330112271E-08    6.8343419021585223E+00    2.4070412578379519E+00
Au    2.9596086796761019E+00    6.8362811786485898E+00    2.4067274705416768E+00
Au    5.9293893523425991E+00    6.8399764096799345E+00    2.4173123730909536E+00
Au    8.9059391725071837E+00    6.8551093216791132E+00    2.4871848010063133E+00
Au    1.1882489084174994E+01    6.8399764833364571E+00    2.4173124422651928E+00
Au    1.4852269868945793E+01    6.8362811407774284E+00    2.4067274298100680E+00
Au    1.4887156639006160E+00    9.4070569141942340E+00    2.4095869018405849E+00
Au    4.4625856815955220E+00    9.4137590968761735E+00    2.4162662619382642E+00
Au    7.4272328785558335E+00    9.4464129316938976E+00    2.4104329660840289E+00
Au    1.0384645597854751E+01    9.4464130656721785E+00    2.4104327450339897E+00
Au    1.3349292776831911E+01    9.4137591926668360E+00    2.4162664226905708E+00
Au    1.6323162733201087E+01    9.4070569157379449E+00    2.4095868576596629E+00
Au   -1.1960539316149750E-09    1.1973281733270651E+01    2.4122869500379247E+00
Au    2.9690006370113009E+00    1.1982869430360539E+01    2.4100990131603384E+00
Au    5.9338680016303424E+00    1.2012482023022161E+01    2.4053070204876397E+00
Au    8.9059391833789192E+00    1.2022860418714190E+01    2.4274421050724007E+00
Au    1.1878010424680440E+01    1.2012482090994499E+01    2.4053070510133758E+00
Au    1.4842877792070393E+01    1.1982869488620238E+01    2.4100989516259137E+00
Au    1.4798711906787152E+00    1.4549779273499906E+01    2.4114344712036506E+00
Au    4.4421182065168301E+00    1.4563623765931350E+01    2.4077079626248974E+00
Au    7.4183141173079044E+00    1.4591145284132416E+01    2.4080040255535549E+00
Au    1.0393564223234550E+01    1.4591145307826807E+01    2.4080040362506057E+00
Au    1.3369760242104491E+01    1.4563623758244399E+01    2.4077079161973511E+00
Au    1.6332007282911668E+01    1.4549779211518226E+01    2.4114344082070529E+00
Au    8.9059152263308965E-08   -3.3352268554611014E-02    4.8747259173348843E+00
Au    2.9308347973897040E+00   -2.8350304783279937E-02    4.8724545643157686E+00
Au    5.8871959630684607E+00   -1.9741604890660368E-02    4.8723039010805627E+00
Au    8.9059392075462451E+00    7.7180716305590231E-05    4.8621464815303206E+00
Au    1.1924682414410162E+01   -1.9741628926814053E-02    4.8723038193181614E+00
Au    1.4881043771999424E+01   -2.8350460993478467E-02    4.8724546680794623E+00
Au    1.4594256142897100E+00    2.5314345249922936E+00    4.8762346254897517E+00
Au    4.3889848990587703E+00    2.5152591733397980E+00    4.8711140508008173E+00
Au    7.3525162137997269E+00    2.4744952421280169E+00    4.8594603002875667E+00
Au    1.0459362237706145E+01    2.4744952736798305E+00    4.8594602612010069E+00
Au    1.3422893855726459E+01    2.5152587785578495E+00    4.8711140006792171E+00
Au    1.6352453073185750E+01    2.5314344432529587E+00    4.8762345396724465E+00
Au    2.9151394140223620E-07    5.1059911988342375E+00    4.8687856478441702E+00
Au    2.9047151555224264E+00    5.1013947251362550E+00    4.8689204668550961E+00
Au    5.8138540983816753E+00    5.0619601714993179E+00    4.9102045947084214E+00
Au    8.9059393163949991E+00    4.9060449814338263E+00    4.8015380247454047E+00
Au    1.1998025214405232E+01    5.0619592738968171E+00    4.9102028600693695E+00
Au    1.4907163778444739E+01    5.1013946486413779E+00    4.8689202963009413E+00
Au    1.4520990221929821E+00    7.6889451310031918E+00    4.8683963677397930E+00
Au    4.3451252653464021E+00    7.6949823198094744E+00    4.8560491659627747E+00
Au    7.2293598655216851E+00    7.8412737430319348E+00    4.7816221978449436E+00
Au    1.0582518743498424E+01    7.8412741808545459E+00    4.7816216137006080E+00
Au    1.3466753445620261E+01    7.6949822735398143E+00    4.8560491596000679E+00
Au    1.6359779639052508E+01    7.6889451267494220E+00    4.8683962351877845E+00
Au    4.8233430601449003E-08    1.0259386599693382E+01    4.8598882693930383E+00
Au    2.9377142921374668E+00    1.0276109431094909E+01    4.8582449141861197E+00
Au    5.8684442536113570E+00    1.0383151256868098E+01    4.8528581041607648E+00
Au    8.9059389083827547E+00    1.0440662264988578E+01    4.8868991752488604E+00
Au    1.1943434494007654E+01    1.0383151669782702E+01    4.8528581780786615E+00
Au    1.4874164318011736E+01    1.0276109497786088E+01    4.8582450290157446E+00
Au    1.4687737766298621E+00    1.2829278948961914E+01    4.8654929941981404E+00
Au    4.4070209634019450E+00    1.2874157026556757E+01    4.8716746758917031E+00
Au    7.3914418043401486E+00    1.2920862696666930E+01    4.8599639134689658E+00
Au    1.0420436560062514E+01    1.2920862630457673E+01    4.8599638452144864E+00
Au    1.3404857615126859E+01    1.2874157270640508E+01    4.8716747281135060E+00
Au    1.6343104677592766E+01    1.2829278959558570E+01    4.8654930083741954E+00
Au    7.4224677696140748E+00    6.0326172404052461E+00    6.9241198975562765E+00
Au    1.0389412926321670E+01    6.0326189140904498E+00    6.9241191169945866E+00
Au    8.9059411075951473E+00    8.5761787943898256E+00    6.9315120009226492E+00
Au    8.9059398961443126E+00    6.8279870042630666E+00    9.0951970988445225E+00
Au    8.9058362140141671E+00    6.2235379845662111E+00    1.1628362182517172E+01
Au    8.9061509079742294E+00    7.8883798854265592E+00    1.3655148347837924E+01
Au    8.9057160418249541E+00    7.3950131623942141E+00    1.6217037693428225E+01
Au    8.9060864262646362E+00    5.8665790553095380E+00    1.8337812373161437E+01
Au    8.9058939096584719E+00    7.2255577358248351E+00    2.0559105929064049E+01
Au    8.9059392039944445E+00    6.8468875474132949E+00    2.3154188846241361E+01
Au    8.9059393112717640E+00    5.1407743465066247E+00    2.5361292300439121E+01
Au    7.4433456471855388E+00    7.6870219610717880E+00    2.5341073568384736E+01
Au    1.0368533759450417E+01    7.6870221243314010E+00    2.5341075019536351E+01
Au   -6.0763407162739428E-08    1.7177523713549994E+00    2.7498474291255896E+01
Au    2.9453207553695493E+00    1.7129234513784679E+00    2.7494456492899612E+01
Au    5.8910399815175776E+00    1.6737952626648276E+00    2.7499140736664256E+01
Au    8.9059391233575624E+00    1.6697938244237382E+00    2.7482782080577728E+01
Au    1.1920838353180223E+01    1.6737951851589383E+00    2.7499140791726521E+01
Au    1.4866557778354368E+01    1.7129232334935254E+00    2.7494456514165428E+01
Au    1.4701267678855121E+00    4.2859132236934236E+00    2.7497538868651059E+01
Au    4.4058218364200332E+00    4.2699955319602934E+00    2.7509966878810030E+01
Au    7.3578527700232685E+00    4.1815820682614513E+00    2.7475884078571177E+01
Au    1.0454025361242170E+01    4.1815822343116613E+00    2.7475883584375762E+01
Au    1.3406056748842369E+01    4.2699951270421757E+00    2.7509966703042743E+01
Au    1.6341751729059496E+01    4.2859131479839068E+00    2.7497539133223494E+01
Au    9.3060609050367517E-08    6.8667803499196420E+00    2.7494288365037711E+01
Au    2.9123612610793144E+00    6.8628770735091482E+00    2.7497801294006223E+01
Au    5.8166516115458666E+00    6.8749790628747540E+00    2.7459809601562021E+01
Au    8.9059390045563767E+00    6.8595441001113162E+00    2.7675150315871079E+01
Au    1.1995227203483061E+01    6.8749784010552331E+00    2.7459810263602048E+01
Au    1.4899517411842556E+01    6.8628771080037074E+00    2.7497801367998285E+01
Au    1.4654427014277225E+00    9.4454514688749445E+00    2.7490765189732198E+01
Au    4.3973751870844175E+00    9.4641911953674960E+00    2.7474542831957613E+01
Au    7.3479556481991315E+00    9.5231554331784736E+00    2.7453604627474867E+01
Au    1.0463922471741173E+01    9.5231564360801073E+00    2.7453605519719261E+01
Au    1.3414503004225077E+01    9.4641911610615903E+00    2.7474543069624136E+01
Au    1.6346435698761315E+01    9.4454515560422934E+00    2.7490765327053005E+01
Au    1.9312594423401919E-10    1.2011906488251316E+01    2.7490515963286274E+01
Au    2.9480067611671061E+00    1.2015977891245130E+01    2.7491534835013915E+01
Au    5.9092598498563413E+00    1.2049509977976889E+01    2.7497976494898122E+01
Au    8.9059389315867818E+00    1.2038424952173962E+01    2.7508937115547017E+01
Au    1.1902618647655084E+01    1.2049510232286574E+01    2.7497976492245822E+01
Au    1.4863871664436552E+01    1.2015977888952550E+01    2.7491534850275972E+01
Au    1.4747470461280365E+00    1.4573366197920009E+01    2.7497169181846065E+01
Au    4.4275816384223097E+00    1.4572403775874168E+01    2.7492430627961500E+01
Au    7.4123749203225016E+00    1.4575870924651619E+01    2.7494436671165897E+01
Au    1.0399503419235765E+01    1.4575870899635181E+01    2.7494436770721780E+01
Au    1.3384296822017630E+01    1.4572403826227912E+01    2.7492430634492695E+01
Au    1.6337131321765440E+01    1.4573366250073237E+01    2.7497169037686110E+01
Au   -2.6014990879966530E-08    7.6623847628188467E-03    2.9946070824476241E+01
Au    2.9678739881595191E+00    6.0515822448152052E-03    2.9946911885026722E+01
Au    5.9353554048916255E+00   -7.0302069656298996E-03    2.9949482002747370E+01
Au    8.9059392201629173E+00    3.9666832443035560E-03    2.9941309596727347E+01
Au    1.1876522964644327E+01   -7.0302471676702092E-03    2.9949482076453208E+01
Au    1.4844004386120041E+01    6.0515407516628719E-03    2.9946911938671775E+01
Au    1.4842794288987518E+00    2.5797173408819396E+00    2.9947209309242567E+01
Au    4.4525313599464882E+00    2.5726126615738432E+00    2.9950982032642909E+01
Au    7.4127988118551347E+00    2.5665384329075143E+00    2.9938521475278502E+01
Au    1.0399079580041288E+01    2.5665385281919053E+00    2.9938521195190926E+01
Au    1.3359347008638435E+01    2.5726125891872615E+00    2.9950982057896340E+01
Au    1.6327598982087739E+01    2.5797172639026424E+00    2.9947209402810021E+01
Au    2.3932644040149424E-08    5.1499416967849196E+00    2.9946240960696883E+01
Au    2.9663045457563522E+00    5.1510230894430507E+00    2.9951473688680231E+01
Au    5.9407440074225395E+00    5.1508453629741604E+00    2.9907761966023141E+01
Au    8.9059391881939902E+00    5.1235226047650269E+00    2.9951283092530119E+01
Au    1.1871134338936425E+01    5.1508450923879749E+00    2.9907761856457125E+01
Au    1.4845573780895151E+01    5.1510231187373705E+00    2.9951473752484770E+01
Au    1.4804753722640136E+00    7.7250122446737484E+00    2.9949297128782796E+01
Au    4.4472534111847555E+00    7.7135374080058403E+00    2.9937598472168695E+01
Au    7.4052031677331547E+00    7.7232556962336183E+00    2.9950033458106919E+01
Au    1.0406675245843338E+01    7.7232556845347107E+00    2.9950033462219999E+01
Au    1.3364624978709557E+01    7.7135374087252142E+00    2.9937598454297724E+01
Au    1.6331403109048185E+01    7.7250122118887523E+00    2.9949297156596565E+01
Au    3.5024373744220088E-08    1.0294004731143559E+01    2.9947315241086002E+01
Au    2.9739660632514640E+00    1.0284618954098896E+01    2.9942495194523918E+01
Au    5.9380973662661019E+00    1.0291219494004967E+01    2.9934852791511553E+01
Au    8.9059389566101625E+00    1.0273682261039584E+01    2.9899092294591373E+01
Au    1.1873781091048714E+01    1.0291219543590925E+01    2.9934852926807892E+01
Au    1.4837912416965047E+01    1.0284619014238748E+01    2.9942495301732460E+01
Au    1.4830649875042565E+00    1.2859387373782038E+01    2.9947754474177454E+01
Au    4.4430737435686627E+00    1.2857413306887253E+01    2.9948581973048210E+01
Au    7.4192346269698177E+00    1.2853507345070470E+01    2.9948313095501128E+01
Au    1.0392643693233101E+01    1.2853507253005299E+01    2.9948313061743296E+01
Au    1.3368804654613411E+01    1.2857413335666944E+01    2.9948582033082829E+01
Au    1.6328813427249660E+01    1.2859387361705879E+01    2.9947754458662310E+01
     &END COORD
     &KIND Au
       BASIS_SET TZVP-MOLOPT-SR-GTH-q11
       ELEMENT Au
       POTENTIAL GTH-PBE-q11
       &POTENTIAL
1 0 10
0.5900000000000000E+00 1  0.1051717881000000E+02
3
0.5438473300000000E+00 2  0.5786811030000000E+01 -0.2250679660000000E+01
0.2905614950000000E+01
0.6091729800000000E+00 2  0.4284048730000000E+01 -0.4071285200000000E+01
0.4817209620000000E+01
0.4373092200000000E+00 2 -0.7403281240000000E+01  0.3010193070000000E+01
-0.3413238110000000E+01
       &END POTENTIAL
     &END KIND
     &TOPOLOGY
       COORD_FILE_NAME junction_65.xyz
       COORD_FILE_FORMAT  XYZ
       NUMBER_OF_ATOMS  193
       MULTIPLE_UNIT_CELL  1 1 1
     &END TOPOLOGY
   &END SUBSYS
   &PRINT
     &TOTAL_NUMBERS  ON
     &END TOTAL_NUMBERS
   &END PRINT
 &END FORCE_EVAL
