 # Version information for this restart file 
 # current date 2022-05-05 10:29:46.528
 # current working dir /rds/general/user/jj1921/home/junction/ortho/cell_65
 # Program compiled at                              Thu 12 Jul 13:52:12 BST 2018
 # Program compiled on                                      build-2.hpc.ic.ac.uk
 # Program compiled for                                       Linux-x86-64-intel
 # Source code revision number                                         svn:18464
 &GLOBAL
   PRINT_LEVEL  MEDIUM
   PROJECT_NAME Au_junction
   RUN_TYPE  CELL_OPT
 &END GLOBAL
 &MOTION
   &CELL_OPT
     OPTIMIZER  BFGS
     STEP_START_VAL  142
     TYPE  DIRECT_CELL_OPT
     KEEP_ANGLES  T
     KEEP_SYMMETRY  T
     CONSTRAINT  XY
   &END CELL_OPT
   &CONSTRAINT
     &FIXED_ATOMS
       COMPONENTS_TO_FIX  XYZ
       LIST  1..36
     &END FIXED_ATOMS
   &END CONSTRAINT
   &PRINT
     &TRAJECTORY  SILENT
       &EACH
         CELL_OPT  1
       &END EACH
     &END TRAJECTORY
   &END PRINT
 &END MOTION
 &FORCE_EVAL
   METHOD  QS
   STRESS_TENSOR  ANALYTICAL
   &DFT
     BASIS_SET_FILE_NAME /rds/general/user/jj1921/home/BASIS_COM_MOLOPT_GTH
     POTENTIAL_FILE_NAME /rds/general/user/jj1921/home/GTH_POTENTIALS
     &SCF
       MAX_SCF  500
       EPS_SCF     9.9999999999999995E-08
       CHOLESKY  INVERSE
       SCF_GUESS  ATOMIC
       ADDED_MOS  20
       &DIAGONALIZATION  T
         ALGORITHM  STANDARD
       &END DIAGONALIZATION
       &SMEAR  T
         METHOD  FERMI_DIRAC
         ELECTRONIC_TEMPERATURE     3.0000000000000000E+02
       &END SMEAR
       &MIXING  T
         METHOD  BROYDEN_MIXING
         ALPHA     4.0000000000000002E-01
         BETA     5.0000000000000000E-01
         NBUFFER  8
       &END MIXING
     &END SCF
     &QS
       EPS_DEFAULT     1.0000000000000000E-14
       METHOD  GPW
     &END QS
     &MGRID
       NGRIDS  4
       CUTOFF     5.0000000000000000E+02
       REL_CUTOFF     4.0000000000000000E+01
     &END MGRID
     &XC
       DENSITY_CUTOFF     1.0000000000000000E-10
       GRADIENT_CUTOFF     1.0000000000000000E-10
       TAU_CUTOFF     1.0000000000000000E-10
       &XC_FUNCTIONAL  NO_SHORTCUT
         &PBE  T
         &END PBE
       &END XC_FUNCTIONAL
     &END XC
     &KPOINTS
       SCHEME MONKHORST-PACK 4 4 1
       FULL_GRID  T
     &END KPOINTS
   &END DFT
   &SUBSYS
     &CELL
       A     1.7811878396732908E+01    0.0000000000000000E+00    0.0000000000000000E+00
       B     0.0000000000000000E+00    1.5425539180689926E+01    0.0000000000000000E+00
       C     0.0000000000000000E+00    0.0000000000000000E+00    3.2354222880117291E+01
       PERIODIC  XYZ
       MULTIPLE_UNIT_CELL  1 1 1
       SYMMETRY  ORTHORHOMBIC
     &END CELL
     &COORD
Au    1.4843231999999993E+00    8.5697439999999980E-01    0.0000000000000000E+00
Au    4.4529695999999976E+00    8.5697439999999980E-01    0.0000000000000000E+00
Au    7.4216159999999967E+00    8.5697439999999980E-01    0.0000000000000000E+00
Au    1.0390262399999999E+01    8.5697439999999980E-01    0.0000000000000000E+00
Au    1.3358908799999995E+01    8.5697439999999980E-01    0.0000000000000000E+00
Au    1.6327555199999992E+01    8.5697439999999980E-01    0.0000000000000000E+00
Au    0.0000000000000000E+00    3.4278975999999992E+00    0.0000000000000000E+00
Au    2.9686463999999986E+00    3.4278975999999992E+00    0.0000000000000000E+00
Au    5.9372927999999972E+00    3.4278975999999992E+00    0.0000000000000000E+00
Au    8.9059391999999953E+00    3.4278975999999992E+00    0.0000000000000000E+00
Au    1.1874585599999994E+01    3.4278975999999992E+00    0.0000000000000000E+00
Au    1.4843231999999993E+01    3.4278975999999992E+00    0.0000000000000000E+00
Au    1.4843231999999993E+00    5.9988207899999981E+00    0.0000000000000000E+00
Au    4.4529695999999976E+00    5.9988207899999981E+00    0.0000000000000000E+00
Au    7.4216159999999967E+00    5.9988207899999981E+00    0.0000000000000000E+00
Au    1.0390262399999999E+01    5.9988207899999981E+00    0.0000000000000000E+00
Au    1.3358908799999995E+01    5.9988207899999981E+00    0.0000000000000000E+00
Au    1.6327555199999992E+01    5.9988207899999981E+00    0.0000000000000000E+00
Au    0.0000000000000000E+00    8.5697439900000010E+00    0.0000000000000000E+00
Au    2.9686463999999986E+00    8.5697439900000010E+00    0.0000000000000000E+00
Au    5.9372927999999972E+00    8.5697439900000010E+00    0.0000000000000000E+00
Au    8.9059391999999953E+00    8.5697439900000010E+00    0.0000000000000000E+00
Au    1.1874585599999994E+01    8.5697439900000010E+00    0.0000000000000000E+00
Au    1.4843231999999993E+01    8.5697439900000010E+00    0.0000000000000000E+00
Au    1.4843231999999993E+00    1.1140667189999997E+01    0.0000000000000000E+00
Au    4.4529695999999976E+00    1.1140667189999997E+01    0.0000000000000000E+00
Au    7.4216159999999967E+00    1.1140667189999997E+01    0.0000000000000000E+00
Au    1.0390262399999999E+01    1.1140667189999997E+01    0.0000000000000000E+00
Au    1.3358908799999995E+01    1.1140667189999997E+01    0.0000000000000000E+00
Au    1.6327555199999992E+01    1.1140667189999997E+01    0.0000000000000000E+00
Au    0.0000000000000000E+00    1.3711590380000004E+01    0.0000000000000000E+00
Au    2.9686463999999986E+00    1.3711590380000004E+01    0.0000000000000000E+00
Au    5.9372927999999972E+00    1.3711590380000004E+01    0.0000000000000000E+00
Au    8.9059391999999953E+00    1.3711590380000004E+01    0.0000000000000000E+00
Au    1.1874585599999994E+01    1.3711590380000004E+01    0.0000000000000000E+00
Au    1.4843231999999993E+01    1.3711590380000004E+01    0.0000000000000000E+00
Au    1.1559219228764474E-07    1.6940440694822285E+00    2.4121566603363847E+00
Au    2.9557892291444210E+00    1.6984817176719338E+00    2.4087357964135383E+00
Au    5.9190022110357514E+00    1.7123438803764441E+00    2.4061729838459796E+00
Au    8.9059391807986845E+00    1.7341553791584345E+00    2.4197206092586585E+00
Au    1.1892876255493089E+01    1.7123437780628648E+00    2.4061729048919389E+00
Au    1.4856089391125707E+01    1.6984815326606471E+00    2.4087358444513107E+00
Au    1.4791349808550289E+00    4.2627832501980283E+00    2.4073432183232688E+00
Au    4.4480400223655625E+00    4.2761185208257722E+00    2.4293341345308850E+00
Au    7.4075690011566149E+00    4.2864281539436186E+00    2.4210539387874892E+00
Au    1.0404309315768330E+01    4.2864281843446843E+00    2.4210540730866561E+00
Au    1.3363838968634536E+01    4.2761181714468508E+00    2.4293332787775541E+00
Au    1.6332743848297675E+01    4.2627832346986310E+00    2.4073432395666829E+00
Au    9.9066506402001510E-08    6.8362156272468475E+00    2.4081094472255771E+00
Au    2.9597546812439481E+00    6.8363099082688210E+00    2.4052279289124443E+00
Au    5.9306561144413292E+00    6.8406834530931455E+00    2.4188958158828537E+00
Au    8.9059391842194735E+00    6.8551150228531048E+00    2.4845658364658196E+00
Au    1.1881222349090926E+01    6.8406835280057621E+00    2.4188958957748872E+00
Au    1.4852123903200017E+01    6.8363098546548322E+00    2.4052278759399761E+00
Au    1.4882104761701478E+00    9.4088226715902579E+00    2.4106277457963916E+00
Au    4.4618873972169144E+00    9.4140165821062478E+00    2.4164098461508345E+00
Au    7.4284052857624401E+00    9.4463358116097336E+00    2.4146067057556313E+00
Au    1.0383473214478711E+01    9.4463359342122821E+00    2.4146065016890716E+00
Au    1.3349991069569825E+01    9.4140166800715832E+00    2.4164100297637749E+00
Au    1.6323667921251975E+01    9.4088226730016036E+00    2.4106276941257301E+00
Au   -2.1404798113150218E-09    1.1975702310091307E+01    2.4110150971496722E+00
Au    2.9681565218065513E+00    1.1983352837722896E+01    2.4104058568540472E+00
Au    5.9349093835004929E+00    1.2012543134397283E+01    2.4056963780020340E+00
Au    8.9059391873760347E+00    1.2018052789561292E+01    2.4248418865451251E+00
Au    1.1876969040995608E+01    1.2012543217575072E+01    2.4056964075059324E+00
Au    1.4843721911199980E+01    1.1983352902584469E+01    2.4104057867605735E+00
Au    1.4786621891608629E+00    1.4548620631402143E+01    2.4113056173439094E+00
Au    4.4419321745548324E+00    1.4564918030920801E+01    2.4083093558686217E+00
Au    7.4187480237191368E+00    1.4590038200016773E+01    2.4080710924081612E+00
Au    1.0393130304291345E+01    1.4590038228288282E+01    2.4080711068424985E+00
Au    1.3369946296299453E+01    1.4564918025147765E+01    2.4083093033990748E+00
Au    1.6333216298478806E+01    1.4548620567417728E+01    2.4113055517744968E+00
Au    1.0317455609586567E-07   -3.3810664278775243E-02    4.8737733040706441E+00
Au    2.9319579334483499E+00   -2.6549095174656159E-02    4.8728465733268775E+00
Au    5.8889148764783661E+00   -1.9502917251435062E-02    4.8716859572897828E+00
Au    8.9059392021113783E+00   -1.0257323637489670E-03    4.8603409650313445E+00
Au    1.1922963534926653E+01   -1.9502959950158390E-02    4.8716858630655091E+00
Au    1.4879920656940085E+01   -2.6549244012490772E-02    4.8728466813567417E+00
Au    1.4606775726986243E+00    2.5326237827597073E+00    4.8766940210043046E+00
Au    4.3894290832336313E+00    2.5146781687978281E+00    4.8704518083812829E+00
Au    7.3528974911708334E+00    2.4744418525477099E+00    4.8590525220808329E+00
Au    1.0458981011778794E+01    2.4744418427705570E+00    4.8590524900563556E+00
Au    1.3422449680109674E+01    2.5146777941976906E+00    4.8704517642558729E+00
Au    1.6351201151623972E+01    2.5326236906295403E+00    4.8766939132438587E+00
Au    2.9752471218210973E-07    5.1087611278925840E+00    4.8693988926705911E+00
Au    2.9050320016142992E+00    5.1042643620068571E+00    4.8696955607953285E+00
Au    5.8109475007436728E+00    5.0602584059934088E+00    4.9076885705773945E+00
Au    8.9059393883487612E+00    4.9070894016410955E+00    4.7981804038232401E+00
Au    1.2000931901536891E+01    5.0602574579915949E+00    4.9076868041491748E+00
Au    1.4906846927935197E+01    5.1042642632678241E+00    4.8696953859660779E+00
Au    1.4547447585721596E+00    7.6911839344734485E+00    4.8683159558451123E+00
Au    4.3444516772988520E+00    7.6976214638377911E+00    4.8566819790374520E+00
Au    7.2297693755889973E+00    7.8389109181103782E+00    4.7798098795176589E+00
Au    1.0582109281595114E+01    7.8389113366621981E+00    4.7798092545395257E+00
Au    1.3467427125406564E+01    7.6976214135815537E+00    4.8566819815786362E+00
Au    1.6357133965134171E+01    7.6911839124177703E+00    4.8683157950721814E+00
Au    5.5223326042316690E-08    1.0260353610454482E+01    4.8602168254260985E+00
Au    2.9381608639098289E+00    1.0278404072775782E+01    4.8577035402612330E+00
Au    5.8688834494788278E+00    1.0382371372269672E+01    4.8522347196180702E+00
Au    8.9059388892193905E+00    1.0440072422221766E+01    4.8898413926807258E+00
Au    1.1942995336305426E+01    1.0382371811050962E+01    4.8522347911458938E+00
Au    1.4873717774206309E+01    1.0278404147559655E+01    4.8577036624947967E+00
Au    1.4701926284865410E+00    1.2830887101558195E+01    4.8650406682905762E+00
Au    4.4080775548231417E+00    1.2872065762228285E+01    4.8710663681347528E+00
Au    7.3925981711375766E+00    1.2917931210117578E+01    4.8590720428160603E+00
Au    1.0419280187347782E+01    1.2917931146710036E+01    4.8590719614919538E+00
Au    1.3403801054555240E+01    1.2872066024308731E+01    4.8710664258332095E+00
Au    1.6341685835629324E+01    1.2830887114619092E+01    4.8650406908320347E+00
Au    7.4197370612998270E+00    6.0288303527289857E+00    6.9226570763252759E+00
Au    1.0392143807013193E+01    6.0288323040969978E+00    6.9226563020379777E+00
Au    8.9059413106992142E+00    8.5757512454020013E+00    6.9330000928977142E+00
Au    8.9059396227386571E+00    6.8241098553067614E+00    9.0923045983143300E+00
Au    8.9058229436625069E+00    6.2272354947294062E+00    1.1634082677993176E+01
Au    8.9061750776752184E+00    7.8962977425383531E+00    1.3654014852308549E+01
Au    8.9056930334832050E+00    7.3932149655096815E+00    1.6219528191713056E+01
Au    8.9061038707351923E+00    5.8629395030345988E+00    1.8338494915748168E+01
Au    8.9058872816202399E+00    7.2277738311127449E+00    2.0555682418033637E+01
Au    8.9059392672764002E+00    6.8479406132695209E+00    2.3157207540952392E+01
Au    8.9059393085708045E+00    5.1401226976968113E+00    2.5362633597185184E+01
Au    7.4414066231030143E+00    7.6894460873772985E+00    2.5343663087945675E+01
Au    1.0370472935889319E+01    7.6894462794905305E+00    2.5343664744775303E+01
Au   -6.9733398534878523E-08    1.7158786974640527E+00    2.7495172772887514E+01
Au    2.9447368872268229E+00    1.7124647644935436E+00    2.7491422099522637E+01
Au    5.8920206653543987E+00    1.6739781723423164E+00    2.7496073179678611E+01
Au    8.9059391113165560E+00    1.6701114709762646E+00    2.7479706346140471E+01
Au    1.1919857663328358E+01    1.6739780792686185E+00    2.7496073238778798E+01
Au    1.4867141672199798E+01    1.7124645119530972E+00    2.7491422126956984E+01
Au    1.4717386235848322E+00    4.2848629077508251E+00    2.7493957708663213E+01
Au    4.4053386307069431E+00    4.2690572582633104E+00    2.7507036656807045E+01
Au    7.3567395572808163E+00    4.1793878954223738E+00    2.7472442314638894E+01
Au    1.0455138547013611E+01    4.1793880775908452E+00    2.7472441759134050E+01
Au    1.3406539978567080E+01    4.2690568057690594E+00    2.7507036453747858E+01
Au    1.6340139893726068E+01    4.2848628255517296E+00    2.7493958015492506E+01
Au    1.0157248514938978E-07    6.8666245621532962E+00    2.7490770064557523E+01
Au    2.9142443544053895E+00    6.8619065944504865E+00    2.7493539163076278E+01
Au    5.8149526654293995E+00    6.8744108941534519E+00    2.7458290509033557E+01
Au    8.9059389834464842E+00    6.8610034985465127E+00    2.7668623922998727E+01
Au    1.1996926190910500E+01    6.8744101538086193E+00    2.7458291229380642E+01
Au    1.4897634336278855E+01    6.8619066292886801E+00    2.7493539257644528E+01
Au    1.4656762872221665E+00    9.4451371735107585E+00    2.7487249567377479E+01
Au    4.3974905820020647E+00    9.4644381438433172E+00    2.7471127241435234E+01
Au    7.3467357326529399E+00    9.5261466765977030E+00    2.7451331751854845E+01
Au    1.0465142349378482E+01    9.5261477816182669E+00    2.7451332728896848E+01
Au    1.3414387585879121E+01    9.4644381079729598E+00    2.7471127520227586E+01
Au    1.6346202109948351E+01    9.4451372722742839E+00    2.7487249730506253E+01
Au   -1.6678290177305690E-10    1.2012042012846107E+01    2.7487956497387621E+01
Au    2.9482182118166205E+00    1.2016047336492653E+01    2.7488161721735420E+01
Au    5.9081072834392296E+00    1.2048915114452440E+01    2.7494526567322879E+01
Au    8.9059389061041063E+00    1.2039839001801727E+01    2.7505876238495386E+01
Au    1.1903771208254900E+01    1.2048915380422216E+01    2.7494526569021527E+01
Au    1.4863660212757891E+01    1.2016047336168974E+01    2.7488161741565161E+01
Au    1.4748728711074197E+00    1.4573086545706554E+01    2.7493909614546034E+01
Au    4.4270943700142578E+00    1.4573606120814407E+01    2.7490113267673568E+01
Au    7.4114969610146106E+00    1.4575150945500742E+01    2.7492589513664036E+01
Au    1.0400381365522030E+01    1.4575150917613287E+01    2.7492589628679010E+01
Au    1.3384784095256212E+01    1.4573606166734850E+01    2.7490113274807403E+01
Au    1.6337005491621873E+01    1.4573086607881011E+01    2.7493909447074532E+01
Au   -3.0881577767064129E-08    6.8437976159444174E-03    2.9944795662662273E+01
Au    2.9654590364613704E+00    6.9465052586782806E-03    2.9943326126903042E+01
Au    5.9349564187496320E+00   -6.7066086016606963E-03    2.9946473436348317E+01
Au    8.9059392180155630E+00    4.4476277335657897E-03    2.9939193670905098E+01
Au    1.1876921944998424E+01   -6.7066592452777671E-03    2.9946473518895075E+01
Au    1.4846419335671269E+01    6.9464532314453733E-03    2.9943326190392700E+01
Au    1.4850916337038476E+00    2.5783397212988040E+00    2.9943451520515563E+01
Au    4.4523938081510277E+00    2.5731997985256436E+00    2.9947341717137689E+01
Au    7.4147677478415535E+00    2.5691570000326536E+00    2.9936478853204125E+01
Au    1.0397110644068572E+01    2.5691571060994849E+00    2.9936478532092906E+01
Au    1.3359484550382888E+01    2.5731997185673179E+00    2.9947341741557135E+01
Au    1.6326786781641992E+01    2.5783396293478611E+00    2.9943451626773811E+01
Au    2.8508567221222525E-08    5.1516794545013100E+00    2.9944043369085133E+01
Au    2.9664421513419277E+00    5.1496698203138562E+00    2.9947888076371505E+01
Au    5.9403714225484547E+00    5.1494743561421323E+00    2.9902660564173644E+01
Au    8.9059391917288497E+00    5.1200779186211145E+00    2.9946500379158127E+01
Au    1.1871506920427608E+01    5.1494740504600101E+00    2.9902660427608186E+01
Au    1.4845436166493636E+01    5.1496698504025504E+00    2.9947888151500450E+01
Au    1.4812135306166769E+00    7.7242621844018737E+00    2.9946515779546448E+01
Au    4.4497118905194357E+00    7.7148260242861513E+00    2.9935109595308418E+01
Au    7.4041738229354612E+00    7.7244260203933761E+00    2.9944917612181314E+01
Au    1.0407704596690607E+01    7.7244260066476729E+00    2.9944917623061201E+01
Au    1.3362166496596654E+01    7.7148260218195679E+00    2.9935109560131732E+01
Au    1.6330664965427911E+01    7.7242621460128724E+00    2.9946515810865183E+01
Au    4.2649334668028522E-08    1.0295864136545578E+01    2.9943720945799075E+01
Au    2.9742901722703174E+00    1.0284280774355283E+01    2.9939470257097518E+01
Au    5.9380083675360344E+00    1.0290277091079927E+01    2.9933404090445237E+01
Au    8.9059389200014110E+00    1.0274037430555387E+01    2.9896909364140406E+01
Au    1.1873870091950190E+01    1.0290277145317232E+01    2.9933404232126335E+01
Au    1.4837588324253584E+01    1.0284280845312601E+01    2.9939470383334513E+01
Au    1.4811155563847040E+00    1.2859986096000787E+01    2.9944743258751529E+01
Au    4.4438883160424689E+00    1.2856790177797814E+01    2.9945551049279253E+01
Au    7.4206104102421095E+00    1.2850965071778679E+01    2.9946534078881196E+01
Au    1.0391267895387861E+01    1.2850964968224170E+01    2.9946534047724295E+01
Au    1.3367990078130132E+01    1.2856790209716142E+01    2.9945551114698024E+01
Au    1.6330762861327219E+01    1.2859986079074883E+01    2.9944743241455711E+01
     &END COORD
     &KIND Au
       BASIS_SET TZVP-MOLOPT-SR-GTH-q11
       ELEMENT Au
       POTENTIAL GTH-PBE-q11
       &POTENTIAL
1 0 10
0.5900000000000000E+00 1  0.1051717881000000E+02
3
0.5438473300000000E+00 2  0.5786811030000000E+01 -0.2250679660000000E+01
0.2905614950000000E+01
0.6091729800000000E+00 2  0.4284048730000000E+01 -0.4071285200000000E+01
0.4817209620000000E+01
0.4373092200000000E+00 2 -0.7403281240000000E+01  0.3010193070000000E+01
-0.3413238110000000E+01
       &END POTENTIAL
     &END KIND
     &TOPOLOGY
       COORD_FILE_NAME junction_65.xyz
       COORD_FILE_FORMAT  XYZ
       NUMBER_OF_ATOMS  193
       MULTIPLE_UNIT_CELL  1 1 1
     &END TOPOLOGY
   &END SUBSYS
   &PRINT
     &TOTAL_NUMBERS  ON
     &END TOTAL_NUMBERS
   &END PRINT
 &END FORCE_EVAL
