 # Version information for this restart file 
 # current date 2022-05-01 17:43:35.674
 # current working dir /rds/general/user/jj1921/home/junction/ortho/cell_65
 # Program compiled at                              Thu 12 Jul 13:52:12 BST 2018
 # Program compiled on                                      build-2.hpc.ic.ac.uk
 # Program compiled for                                       Linux-x86-64-intel
 # Source code revision number                                         svn:18464
 &GLOBAL
   PRINT_LEVEL  MEDIUM
   PROJECT_NAME Au_junction
   RUN_TYPE  CELL_OPT
 &END GLOBAL
 &MOTION
   &CELL_OPT
     OPTIMIZER  BFGS
     STEP_START_VAL  75
     TYPE  DIRECT_CELL_OPT
     KEEP_ANGLES  T
     KEEP_SYMMETRY  T
     CONSTRAINT  XY
   &END CELL_OPT
   &CONSTRAINT
     &FIXED_ATOMS
       COMPONENTS_TO_FIX  XYZ
       LIST  1..36
     &END FIXED_ATOMS
   &END CONSTRAINT
   &PRINT
     &TRAJECTORY  SILENT
       &EACH
         CELL_OPT  1
       &END EACH
     &END TRAJECTORY
   &END PRINT
 &END MOTION
 &FORCE_EVAL
   METHOD  QS
   STRESS_TENSOR  ANALYTICAL
   &DFT
     BASIS_SET_FILE_NAME /rds/general/user/jj1921/home/BASIS_COM_MOLOPT_GTH
     POTENTIAL_FILE_NAME /rds/general/user/jj1921/home/GTH_POTENTIALS
     &SCF
       MAX_SCF  500
       EPS_SCF     9.9999999999999995E-08
       CHOLESKY  INVERSE
       SCF_GUESS  ATOMIC
       ADDED_MOS  20
       &DIAGONALIZATION  T
         ALGORITHM  STANDARD
       &END DIAGONALIZATION
       &SMEAR  T
         METHOD  FERMI_DIRAC
         ELECTRONIC_TEMPERATURE     3.0000000000000000E+02
       &END SMEAR
       &MIXING  T
         METHOD  BROYDEN_MIXING
         ALPHA     4.0000000000000002E-01
         BETA     5.0000000000000000E-01
         NBUFFER  8
       &END MIXING
     &END SCF
     &QS
       EPS_DEFAULT     1.0000000000000000E-14
       METHOD  GPW
     &END QS
     &MGRID
       NGRIDS  4
       CUTOFF     5.0000000000000000E+02
       REL_CUTOFF     4.0000000000000000E+01
     &END MGRID
     &XC
       DENSITY_CUTOFF     1.0000000000000000E-10
       GRADIENT_CUTOFF     1.0000000000000000E-10
       TAU_CUTOFF     1.0000000000000000E-10
       &XC_FUNCTIONAL  NO_SHORTCUT
         &PBE  T
         &END PBE
       &END XC_FUNCTIONAL
     &END XC
     &KPOINTS
       SCHEME MONKHORST-PACK 4 4 1
       FULL_GRID  T
     &END KPOINTS
   &END DFT
   &SUBSYS
     &CELL
       A     1.7811878396732901E+01    0.0000000000000000E+00    0.0000000000000000E+00
       B     0.0000000000000000E+00    1.5425539180689929E+01    0.0000000000000000E+00
       C     0.0000000000000000E+00    0.0000000000000000E+00    3.3324138188915128E+01
       PERIODIC  XYZ
       MULTIPLE_UNIT_CELL  1 1 1
       SYMMETRY  ORTHORHOMBIC
     &END CELL
     &COORD
Au    1.4843231999999995E+00    8.5697439999999980E-01    0.0000000000000000E+00
Au    4.4529695999999985E+00    8.5697439999999980E-01    0.0000000000000000E+00
Au    7.4216159999999975E+00    8.5697439999999980E-01    0.0000000000000000E+00
Au    1.0390262399999999E+01    8.5697439999999980E-01    0.0000000000000000E+00
Au    1.3358908799999998E+01    8.5697439999999980E-01    0.0000000000000000E+00
Au    1.6327555199999995E+01    8.5697439999999980E-01    0.0000000000000000E+00
Au    0.0000000000000000E+00    3.4278975999999992E+00    0.0000000000000000E+00
Au    2.9686463999999990E+00    3.4278975999999992E+00    0.0000000000000000E+00
Au    5.9372927999999980E+00    3.4278975999999992E+00    0.0000000000000000E+00
Au    8.9059391999999971E+00    3.4278975999999992E+00    0.0000000000000000E+00
Au    1.1874585599999996E+01    3.4278975999999992E+00    0.0000000000000000E+00
Au    1.4843231999999995E+01    3.4278975999999992E+00    0.0000000000000000E+00
Au    1.4843231999999995E+00    5.9988207899999981E+00    0.0000000000000000E+00
Au    4.4529695999999985E+00    5.9988207899999981E+00    0.0000000000000000E+00
Au    7.4216159999999975E+00    5.9988207899999981E+00    0.0000000000000000E+00
Au    1.0390262399999999E+01    5.9988207899999981E+00    0.0000000000000000E+00
Au    1.3358908799999998E+01    5.9988207899999981E+00    0.0000000000000000E+00
Au    1.6327555199999995E+01    5.9988207899999981E+00    0.0000000000000000E+00
Au    0.0000000000000000E+00    8.5697439899999974E+00    0.0000000000000000E+00
Au    2.9686463999999990E+00    8.5697439899999974E+00    0.0000000000000000E+00
Au    5.9372927999999980E+00    8.5697439899999974E+00    0.0000000000000000E+00
Au    8.9059391999999971E+00    8.5697439899999974E+00    0.0000000000000000E+00
Au    1.1874585599999996E+01    8.5697439899999974E+00    0.0000000000000000E+00
Au    1.4843231999999995E+01    8.5697439899999974E+00    0.0000000000000000E+00
Au    1.4843231999999995E+00    1.1140667189999997E+01    0.0000000000000000E+00
Au    4.4529695999999985E+00    1.1140667189999997E+01    0.0000000000000000E+00
Au    7.4216159999999975E+00    1.1140667189999997E+01    0.0000000000000000E+00
Au    1.0390262399999999E+01    1.1140667189999997E+01    0.0000000000000000E+00
Au    1.3358908799999998E+01    1.1140667189999997E+01    0.0000000000000000E+00
Au    1.6327555199999995E+01    1.1140667189999997E+01    0.0000000000000000E+00
Au    0.0000000000000000E+00    1.3711590380000001E+01    0.0000000000000000E+00
Au    2.9686463999999990E+00    1.3711590380000001E+01    0.0000000000000000E+00
Au    5.9372927999999980E+00    1.3711590380000001E+01    0.0000000000000000E+00
Au    8.9059391999999971E+00    1.3711590380000001E+01    0.0000000000000000E+00
Au    1.1874585599999996E+01    1.3711590380000001E+01    0.0000000000000000E+00
Au    1.4843231999999995E+01    1.3711590380000001E+01    0.0000000000000000E+00
Au    4.2559643320756120E-09    1.7217625116942117E+00    2.3962652741493100E+00
Au    2.9781108052117022E+00    1.7232089722723338E+00    2.3956812656902988E+00
Au    5.9439813723041546E+00    1.7190237619199351E+00    2.4021751552814932E+00
Au    8.9059391997377251E+00    1.7259538686277442E+00    2.4143636991429749E+00
Au    1.1867897029100044E+01    1.7190237620166824E+00    2.4021751547291554E+00
Au    1.4833767597551541E+01    1.7232089738328094E+00    2.3956812665224407E+00
Au    1.4962416145030140E+00    4.2868369186037061E+00    2.3924447365364805E+00
Au    4.4880316595395451E+00    4.2945688920938334E+00    2.4374105231313887E+00
Au    7.4281642123569442E+00    4.2988808019666473E+00    2.4493393647659443E+00
Au    1.0383714185238047E+01    4.2988808024896992E+00    2.4493393652204172E+00
Au    1.3323846739867303E+01    4.2945688921963825E+00    2.4374105154727181E+00
Au    1.6315636789133627E+01    4.2868369189266744E+00    2.3924447393756250E+00
Au    2.3206207948490442E-09    6.8615793954095849E+00    2.3962183421762568E+00
Au    2.9803319658296505E+00    6.8467619307555534E+00    2.3977568990749232E+00
Au    5.9549587626492055E+00    6.8432729635201897E+00    2.4416749613380238E+00
Au    8.9059392003712734E+00    6.8529050937537521E+00    2.5099248281804671E+00
Au    1.1856919636541360E+01    6.8432729650656485E+00    2.4416749624258447E+00
Au    1.4831546436064460E+01    6.8467619315133650E+00    2.3977568952122974E+00
Au    1.4930488422786319E+00    9.4268545388678042E+00    2.3958570994346653E+00
Au    4.4729107777841923E+00    9.4112031807570453E+00    2.4127501020127888E+00
Au    7.4353413693987234E+00    9.4155353464449192E+00    2.4414016016988662E+00
Au    1.0376537032374761E+01    9.4155353464428782E+00    2.4414016005374539E+00
Au    1.3338967624446147E+01    9.4112031827319633E+00    2.4127501023924380E+00
Au    1.6318829560685657E+01    9.4268545395292982E+00    2.3958570962662602E+00
Au    2.0033365444976748E-09    1.2004938672474939E+01    2.3961783869148370E+00
Au    2.9834778712653804E+00    1.1991688962202822E+01    2.3993421463737952E+00
Au    5.9497912750919033E+00    1.1993884863252035E+01    2.4008787553330504E+00
Au    8.9059392011105167E+00    1.1966150017403447E+01    2.4371284048146920E+00
Au    1.1862087128428518E+01    1.1993884864379385E+01    2.4008787560983720E+00
Au    1.4828400530136959E+01    1.1991688962547366E+01    2.3993421476976842E+00
Au    1.4899287121255396E+00    1.4573410087896121E+01    2.3938434383104181E+00
Au    4.4584053961816714E+00    1.4566373242152768E+01    2.4028714496450050E+00
Au    7.4289445390355029E+00    1.4567007581698904E+01    2.4012368755298930E+00
Au    1.0382933864457245E+01    1.4567007582526120E+01    2.4012368768076215E+00
Au    1.3353473006682854E+01    1.4566373243060932E+01    2.4028714507913711E+00
Au    1.6321949688140020E+01    1.4573410088752629E+01    2.3938434407593330E+00
Au    3.8004047559706725E-09   -9.0762360365335710E-04    4.8229934715085987E+00
Au    2.9553174922094381E+00   -6.6999128885551838E-04    4.8362496341034014E+00
Au    5.9204264024043365E+00   -2.0053229884788290E-02    4.8573513412922518E+00
Au    8.9059392027692450E+00   -7.9374710041666009E-03    4.8545296617615952E+00
Au    1.1891452001672846E+01   -2.0053227763494906E-02    4.8573513437825451E+00
Au    1.4856560910053078E+01   -6.6999001002279810E-04    4.8362496374301225E+00
Au    1.4699540914649138E+00    2.5626470478088401E+00    4.8345512231758079E+00
Au    4.4202336582407966E+00    2.5374105384347594E+00    4.8630853926242859E+00
Au    7.3793473681186956E+00    2.4883442298550329E+00    4.8624661835940648E+00
Au    1.0432531034078147E+01    2.4883442305856716E+00    4.8624661816300119E+00
Au    1.3391644743587307E+01    2.5374105408810586E+00    4.8630853920908299E+00
Au    1.6341924311535415E+01    2.5626470482746924E+00    4.8345512199627239E+00
Au    4.2794115366887692E-09    5.1351980932026988E+00    4.8302298132742916E+00
Au    2.9240086521735198E+00    5.1227502912978737E+00    4.8584504358568612E+00
Au    5.8426466364000502E+00    5.0836683883455684E+00    4.9724937626452173E+00
Au    8.9059392000067739E+00    4.9596932733930519E+00    4.8657187964701114E+00
Au    1.1969231761889038E+01    5.0836683882207909E+00    4.9724937557155657E+00
Au    1.4887869745096436E+01    5.1227502925589166E+00    4.8584504292643764E+00
Au    1.4590761536153560E+00    7.7100673380380345E+00    4.8438060101845473E+00
Au    4.3554637908009184E+00    7.7064725448684275E+00    4.8605056508732964E+00
Au    7.2536928468728243E+00    7.8125554848658165E+00    4.8489816533103545E+00
Au    1.0558185552700357E+01    7.8125554802005537E+00    4.8489816528457599E+00
Au    1.3456414611036109E+01    7.7064725469696986E+00    4.8605056451688107E+00
Au    1.6352802247081033E+01    7.7100673385261791E+00    4.8438060055345016E+00
Au    1.0876603513703538E-09    1.0285863619601296E+01    4.8245418671180254E+00
Au    2.9459684636208991E+00    1.0288298971251372E+01    4.8378502833874606E+00
Au    5.8745648220364783E+00    1.0363861651204092E+01    4.8591125696132096E+00
Au    8.9059392031632534E+00    1.0379965326315379E+01    4.9670136068867032E+00
Au    1.1937313581495166E+01    1.0363861651025800E+01    4.8591125710564249E+00
Au    1.4865909940737332E+01    1.0288298972552850E+01    4.8378502850597789E+00
Au    1.4797293425756228E+00    1.2855647337982033E+01    4.8238229939107864E+00
Au    4.4289374144317311E+00    1.2875685619994108E+01    4.8546768032606016E+00
Au    7.4110118677888348E+00    1.2887794783596403E+01    4.8622483074086773E+00
Au    1.0400866537410144E+01    1.2887794783034462E+01    4.8622483089628670E+00
Au    1.3382940991021249E+01    1.2875685622002484E+01    4.8546768075585396E+00
Au    1.6332149059148804E+01    1.2855647337027030E+01    4.8238229969192696E+00
Au    7.4213066318050318E+00    6.0266251448175119E+00    7.0360315795568189E+00
Au    1.0390571768249020E+01    6.0266251455667543E+00    7.0360315814037424E+00
Au    8.9059392047823280E+00    8.5368226250124746E+00    7.0519582103266547E+00
Au    8.9059391937245280E+00    6.7502814281686474E+00    9.2364217710297147E+00
Au    8.9059387896821605E+00    6.2334091338776156E+00    1.1826741104515413E+01
Au    8.9059403141831517E+00    7.5535410322391074E+00    1.4116693917161529E+01
Au    8.9059377797265586E+00    7.0699983062632921E+00    1.6715072908969450E+01
Au    8.9059400879064761E+00    6.0705007026509845E+00    1.9163959046206472E+01
Au    8.9059389833378049E+00    7.3337233632112611E+00    2.1458522073865243E+01
Au    8.9059392001047009E+00    6.9438730334583472E+00    2.4085321614440268E+01
Au    8.9059392036266392E+00    5.1747740520331655E+00    2.6266287105546457E+01
Au    7.4283203638088393E+00    7.6857806291279349E+00    2.6283036038255304E+01
Au    1.0383558046865698E+01    7.6857806305338467E+00    2.6283036036874929E+01
Au    8.6074741575599005E-10    1.7157396123606130E+00    2.8500717103987636E+01
Au    2.9479290514191372E+00    1.7135107704194750E+00    2.8483630675996036E+01
Au    5.8977950799510257E+00    1.6821727547149119E+00    2.8469156380241884E+01
Au    8.9059392017858734E+00    1.6673888590999453E+00    2.8445473057205334E+01
Au    1.1914083322803767E+01    1.6821727595781826E+00    2.8469156384436953E+01
Au    1.4863949350337194E+01    1.7135107684423643E+00    2.8483630676375569E+01
Au    1.4728958804792496E+00    4.2867134665727384E+00    2.8488184415317626E+01
Au    4.4161853385889760E+00    4.2726697403605582E+00    2.8478863090826430E+01
Au    7.3732058027573357E+00    4.1850347829977599E+00    2.8386341994129939E+01
Au    1.0438672595714449E+01    4.1850347837871942E+00    2.8386341994769769E+01
Au    1.3395693058184349E+01    4.2726697383697712E+00    2.8478863091644101E+01
Au    1.6338982520378895E+01    4.2867134716461868E+00    2.8488184416552237E+01
Au    1.4644999601261538E-09    6.8640674391831089E+00    2.8484241938194042E+01
Au    2.9132620714623414E+00    6.8593849492706269E+00    2.8472662870129856E+01
Au    5.8117765636739520E+00    6.8716044348259464E+00    2.8400508958511313E+01
Au    8.9059392025862465E+00    6.8652603342265133E+00    2.8595447613701737E+01
Au    1.2000101832395929E+01    6.8716044301914341E+00    2.8400508958159506E+01
Au    1.4898616328601126E+01    6.8593849557625148E+00    2.8472662868392039E+01
Au    1.4687248492473375E+00    9.4370404002038839E+00    2.8483277104013148E+01
Au    4.3951660136231139E+00    9.4596189690567609E+00    2.8442039392730383E+01
Au    7.3396074690713764E+00    9.5154334801943961E+00    2.8390970062841607E+01
Au    1.0472270933614199E+01    9.5154334849643352E+00    2.8390970064409615E+01
Au    1.3416712389693101E+01    9.4596189648172508E+00    2.8442039394602151E+01
Au    1.6343153548887173E+01    9.4370404025327499E+00    2.8483277105073316E+01
Au    2.5591692986419669E-09    1.2003309855683938E+01    2.8496931769336911E+01
Au    2.9566639413637974E+00    1.2012263798517701E+01    2.8481964040943129E+01
Au    5.9180952226369987E+00    1.2040072855782556E+01    2.8465580122480066E+01
Au    8.9059391967171635E+00    1.2024392570479309E+01    2.8470586448696611E+01
Au    1.1893783175493235E+01    1.2040072858382851E+01    2.8465580126074119E+01
Au    1.4855214456862047E+01    1.2012263797985861E+01    2.8481964048430957E+01
Au    1.4790504510418454E+00    1.4567939234385094E+01    2.8499400910967623E+01
Au    4.4406997713800642E+00    1.4573502836022870E+01    2.8477213071319927E+01
Au    7.4158456855792299E+00    1.4571902211072510E+01    2.8468909463418274E+01
Au    1.0396032711146241E+01    1.4571902210201692E+01    2.8468909466887421E+01
Au    1.3371178628898726E+01    1.4573502838712441E+01    2.8477213078413357E+01
Au    1.6332827948783059E+01    1.4567939236782985E+01    2.8499400914188243E+01
Au    1.4210538426105298E-09    6.7340563558324095E-04    3.0928667230250763E+01
Au    2.9793859396615314E+00    3.5725184925727684E-03    3.0925813016722827E+01
Au    5.9484556311752739E+00   -2.3274822651111797E-05    3.0920165716900772E+01
Au    8.9059391990233525E+00    1.3342715313493887E-02    3.0915873288870440E+01
Au    1.1863422768134122E+01   -2.3277197609447788E-05    3.0920165717840792E+01
Au    1.4832492460185206E+01    3.5725224727680732E-03    3.0925813019975312E+01
Au    1.4890099514814010E+00    2.5773114765149074E+00    3.0927678980010601E+01
Au    4.4619367590134109E+00    2.5757948993169690E+00    3.0921878909464152E+01
Au    7.4250688731887653E+00    2.5873918385547996E+00    3.0900008844092302E+01
Au    1.0386809526976917E+01    2.5873918385001655E+00    3.0900008845439160E+01
Au    1.3349941642651704E+01    2.5757948989351425E+00    3.0921878912026148E+01
Au    1.6322868453379716E+01    2.5773114760089508E+00    3.0927678978564277E+01
Au    3.6962659628790252E-09    5.1492143965667783E+00    3.0926021818086426E+01
Au    2.9792097304855072E+00    5.1504093741633712E+00    3.0923700763848409E+01
Au    5.9601411849217927E+00    5.1532452187825628E+00    3.0856291803910480E+01
Au    8.9059391995162827E+00    5.1283475886012706E+00    3.0889649629909925E+01
Au    1.1851737216171648E+01    5.1532452187931765E+00    3.0856291805433415E+01
Au    1.4832668671174112E+01    5.1504093772865067E+00    3.0923700762557587E+01
Au    1.4888559601414841E+00    7.7163005289958448E+00    3.0929584692629255E+01
Au    4.4718535669689228E+00    7.7093144258598976E+00    3.0908138878443562E+01
Au    7.4160651968091083E+00    7.7150276090723366E+00    3.0895277745181303E+01
Au    1.0395813204663387E+01    7.7150276099753672E+00    3.0895277746284613E+01
Au    1.3340024832388652E+01    7.7093144287826307E+00    3.0908138875497542E+01
Au    1.6323022440021596E+01    7.7163005310773851E+00    3.0929584694245431E+01
Au    3.9868515489867131E-09    1.0286478185110031E+01    3.0930281794873341E+01
Au    2.9890545759144813E+00    1.0275534115474976E+01    3.0917680331526753E+01
Au    5.9571283436997859E+00    1.0277013364071459E+01    3.0901847736508440E+01
Au    8.9059391980718647E+00    1.0257704537846198E+01    3.0851238314477509E+01
Au    1.1854750054475858E+01    1.0277013365561970E+01    3.0901847736155954E+01
Au    1.4822823825997185E+01    1.0275534117839037E+01    3.0917680334861672E+01
Au    1.4912486060663188E+00    1.2848684359931047E+01    3.0930223941584046E+01
Au    4.4631176148144140E+00    1.2854727981709608E+01    3.0922167002476616E+01
Au    7.4295160521425609E+00    1.2848693827731728E+01    3.0917038493109597E+01
Au    1.0382362341222954E+01    1.2848693830737238E+01    3.0917038495213312E+01
Au    1.3348760782335617E+01    1.2854727982053710E+01    3.0922167002760951E+01
Au    1.6320629792439110E+01    1.2848684357372205E+01    3.0930223940728887E+01
     &END COORD
     &KIND Au
       BASIS_SET TZVP-MOLOPT-SR-GTH-q11
       ELEMENT Au
       POTENTIAL GTH-PBE-q11
       &POTENTIAL
1 0 10
0.5900000000000000E+00 1  0.1051717881000000E+02
3
0.5438473300000000E+00 2  0.5786811030000000E+01 -0.2250679660000000E+01
0.2905614950000000E+01
0.6091729800000000E+00 2  0.4284048730000000E+01 -0.4071285200000000E+01
0.4817209620000000E+01
0.4373092200000000E+00 2 -0.7403281240000000E+01  0.3010193070000000E+01
-0.3413238110000000E+01
       &END POTENTIAL
     &END KIND
     &TOPOLOGY
       COORD_FILE_NAME junction_65.xyz
       COORD_FILE_FORMAT  XYZ
       NUMBER_OF_ATOMS  193
       MULTIPLE_UNIT_CELL  1 1 1
     &END TOPOLOGY
   &END SUBSYS
   &PRINT
     &TOTAL_NUMBERS  ON
     &END TOTAL_NUMBERS
   &END PRINT
 &END FORCE_EVAL
