 # Version information for this restart file 
 # current date 2022-05-05 20:19:41.988
 # current working dir /rds/general/user/jj1921/home/junction/ortho/cell_65
 # Program compiled at                              Thu 12 Jul 13:52:12 BST 2018
 # Program compiled on                                      build-2.hpc.ic.ac.uk
 # Program compiled for                                       Linux-x86-64-intel
 # Source code revision number                                         svn:18464
 &GLOBAL
   PRINT_LEVEL  MEDIUM
   PROJECT_NAME Au_junction
   RUN_TYPE  CELL_OPT
 &END GLOBAL
 &MOTION
   &CELL_OPT
     OPTIMIZER  BFGS
     STEP_START_VAL  149
     TYPE  DIRECT_CELL_OPT
     KEEP_ANGLES  T
     KEEP_SYMMETRY  T
     CONSTRAINT  XY
   &END CELL_OPT
   &CONSTRAINT
     &FIXED_ATOMS
       COMPONENTS_TO_FIX  XYZ
       LIST  1..36
     &END FIXED_ATOMS
   &END CONSTRAINT
   &PRINT
     &TRAJECTORY  SILENT
       &EACH
         CELL_OPT  1
       &END EACH
     &END TRAJECTORY
   &END PRINT
 &END MOTION
 &FORCE_EVAL
   METHOD  QS
   STRESS_TENSOR  ANALYTICAL
   &DFT
     BASIS_SET_FILE_NAME /rds/general/user/jj1921/home/BASIS_COM_MOLOPT_GTH
     POTENTIAL_FILE_NAME /rds/general/user/jj1921/home/GTH_POTENTIALS
     &SCF
       MAX_SCF  500
       EPS_SCF     9.9999999999999995E-08
       CHOLESKY  INVERSE
       SCF_GUESS  ATOMIC
       ADDED_MOS  20
       &DIAGONALIZATION  T
         ALGORITHM  STANDARD
       &END DIAGONALIZATION
       &SMEAR  T
         METHOD  FERMI_DIRAC
         ELECTRONIC_TEMPERATURE     3.0000000000000000E+02
       &END SMEAR
       &MIXING  T
         METHOD  BROYDEN_MIXING
         ALPHA     4.0000000000000002E-01
         BETA     5.0000000000000000E-01
         NBUFFER  8
       &END MIXING
     &END SCF
     &QS
       EPS_DEFAULT     1.0000000000000000E-14
       METHOD  GPW
     &END QS
     &MGRID
       NGRIDS  4
       CUTOFF     5.0000000000000000E+02
       REL_CUTOFF     4.0000000000000000E+01
     &END MGRID
     &XC
       DENSITY_CUTOFF     1.0000000000000000E-10
       GRADIENT_CUTOFF     1.0000000000000000E-10
       TAU_CUTOFF     1.0000000000000000E-10
       &XC_FUNCTIONAL  NO_SHORTCUT
         &PBE  T
         &END PBE
       &END XC_FUNCTIONAL
     &END XC
     &KPOINTS
       SCHEME MONKHORST-PACK 4 4 1
       FULL_GRID  T
     &END KPOINTS
   &END DFT
   &SUBSYS
     &CELL
       A     1.7811878396732908E+01    0.0000000000000000E+00    0.0000000000000000E+00
       B     0.0000000000000000E+00    1.5425539180689926E+01    0.0000000000000000E+00
       C     0.0000000000000000E+00    0.0000000000000000E+00    3.2343510849963863E+01
       PERIODIC  XYZ
       MULTIPLE_UNIT_CELL  1 1 1
       SYMMETRY  ORTHORHOMBIC
     &END CELL
     &COORD
Au    1.4843231999999993E+00    8.5697439999999980E-01    0.0000000000000000E+00
Au    4.4529695999999976E+00    8.5697439999999980E-01    0.0000000000000000E+00
Au    7.4216159999999967E+00    8.5697439999999980E-01    0.0000000000000000E+00
Au    1.0390262399999999E+01    8.5697439999999980E-01    0.0000000000000000E+00
Au    1.3358908799999995E+01    8.5697439999999980E-01    0.0000000000000000E+00
Au    1.6327555199999992E+01    8.5697439999999980E-01    0.0000000000000000E+00
Au    0.0000000000000000E+00    3.4278975999999992E+00    0.0000000000000000E+00
Au    2.9686463999999986E+00    3.4278975999999992E+00    0.0000000000000000E+00
Au    5.9372927999999972E+00    3.4278975999999992E+00    0.0000000000000000E+00
Au    8.9059391999999953E+00    3.4278975999999992E+00    0.0000000000000000E+00
Au    1.1874585599999994E+01    3.4278975999999992E+00    0.0000000000000000E+00
Au    1.4843231999999993E+01    3.4278975999999992E+00    0.0000000000000000E+00
Au    1.4843231999999993E+00    5.9988207899999981E+00    0.0000000000000000E+00
Au    4.4529695999999976E+00    5.9988207899999981E+00    0.0000000000000000E+00
Au    7.4216159999999967E+00    5.9988207899999981E+00    0.0000000000000000E+00
Au    1.0390262399999999E+01    5.9988207899999981E+00    0.0000000000000000E+00
Au    1.3358908799999995E+01    5.9988207899999981E+00    0.0000000000000000E+00
Au    1.6327555199999992E+01    5.9988207899999981E+00    0.0000000000000000E+00
Au    0.0000000000000000E+00    8.5697439900000010E+00    0.0000000000000000E+00
Au    2.9686463999999986E+00    8.5697439900000010E+00    0.0000000000000000E+00
Au    5.9372927999999972E+00    8.5697439900000010E+00    0.0000000000000000E+00
Au    8.9059391999999953E+00    8.5697439900000010E+00    0.0000000000000000E+00
Au    1.1874585599999994E+01    8.5697439900000010E+00    0.0000000000000000E+00
Au    1.4843231999999993E+01    8.5697439900000010E+00    0.0000000000000000E+00
Au    1.4843231999999993E+00    1.1140667189999997E+01    0.0000000000000000E+00
Au    4.4529695999999976E+00    1.1140667189999997E+01    0.0000000000000000E+00
Au    7.4216159999999967E+00    1.1140667189999997E+01    0.0000000000000000E+00
Au    1.0390262399999999E+01    1.1140667189999997E+01    0.0000000000000000E+00
Au    1.3358908799999995E+01    1.1140667189999997E+01    0.0000000000000000E+00
Au    1.6327555199999992E+01    1.1140667189999997E+01    0.0000000000000000E+00
Au    0.0000000000000000E+00    1.3711590380000004E+01    0.0000000000000000E+00
Au    2.9686463999999986E+00    1.3711590380000004E+01    0.0000000000000000E+00
Au    5.9372927999999972E+00    1.3711590380000004E+01    0.0000000000000000E+00
Au    8.9059391999999953E+00    1.3711590380000004E+01    0.0000000000000000E+00
Au    1.1874585599999994E+01    1.3711590380000004E+01    0.0000000000000000E+00
Au    1.4843231999999993E+01    1.3711590380000004E+01    0.0000000000000000E+00
Au    1.6820451525377917E-07    1.6961008402432478E+00    2.4127880673114999E+00
Au    2.9539995212033454E+00    1.7002027203611458E+00    2.4084665874128763E+00
Au    5.9198838896032466E+00    1.7114748242060251E+00    2.4055041264480939E+00
Au    8.9059392000085005E+00    1.7328220606347640E+00    2.4184760984358067E+00
Au    1.1891994650314361E+01    1.7114746389032174E+00    2.4055040108580230E+00
Au    1.4857879182909500E+01    1.7002025025591923E+00    2.4084666635545995E+00
Au    1.4794734853218316E+00    4.2659907237682271E+00    2.4089354914343799E+00
Au    4.4483121895261224E+00    4.2769483910161599E+00    2.4255057950200158E+00
Au    7.4079228415849459E+00    4.2860738482875744E+00    2.4190177957246637E+00
Au    1.0403955572453036E+01    4.2860738603314950E+00    2.4190179883148808E+00
Au    1.3363566962942476E+01    4.2769479486170230E+00    2.4255047051641174E+00
Au    1.6332405467167163E+01    4.2659907064227518E+00    2.4089355208025021E+00
Au    1.6678752585038386E-07    6.8404089820338694E+00    2.4101445090495384E+00
Au    2.9607765730363078E+00    6.8374685759036371E+00    2.4045506909209475E+00
Au    5.9299567721989348E+00    6.8426121888186611E+00    2.4187541802674959E+00
Au    8.9059392195439955E+00    6.8561623384625037E+00    2.4778489933786090E+00
Au    1.1881921774281725E+01    6.8426122801089964E+00    2.4187543266053306E+00
Au    1.4851102136927528E+01    6.8374684799248229E+00    2.4045506154490841E+00
Au    1.4876286554823235E+00    9.4123489332838570E+00    2.4109564645456762E+00
Au    4.4612715778207734E+00    9.4151115367817741E+00    2.4149943851451336E+00
Au    7.4273786585485304E+00    9.4449763335467249E+00    2.4173942294885093E+00
Au    1.0384499929117110E+01    9.4449764435209520E+00    2.4173940078253944E+00
Au    1.3350606937069163E+01    9.4151116567834681E+00    2.4149946449264634E+00
Au    1.6324249748823306E+01    9.4123489310519570E+00    2.4109563830260035E+00
Au   -9.0072707157339078E-09    1.1978363699073515E+01    2.4112721866578051E+00
Au    2.9692758091667444E+00    1.1985602607240468E+01    2.4088912524421788E+00
Au    5.9344514160330082E+00    1.2012559579639717E+01    2.4047415530556480E+00
Au    8.9059391980859601E+00    1.2011588563073044E+01    2.4227269963425413E+00
Au    1.1877427020111970E+01    1.2012559697223983E+01    2.4047415927350455E+00
Au    1.4842602641857580E+01    1.1985602699945462E+01    2.4088911431788680E+00
Au    1.4799172168231327E+00    1.4551095082092777E+01    2.4114341227137923E+00
Au    4.4413291231311769E+00    1.4566246906132081E+01    2.4093368657911403E+00
Au    7.4197427446543909E+00    1.4586938406789690E+01    2.4068850397479808E+00
Au    1.0392135553914555E+01    1.4586938455202040E+01    2.4068850640272221E+00
Au    1.3370549418125844E+01    1.4566246889524004E+01    2.4093367815027777E+00
Au    1.6331961320827936E+01    1.4551095010654265E+01    2.4114340324577466E+00
Au    1.4992052069052946E-07   -2.9909429934027964E-02    4.8714735208740310E+00
Au    2.9348065535970682E+00   -2.4331726512506105E-02    4.8726225675965198E+00
Au    5.8933011380494742E+00   -2.2244302615970369E-02    4.8694877486193624E+00
Au    8.9059391971359929E+00   -3.9995003074394901E-03    4.8564511088370717E+00
Au    1.1918577375781744E+01   -2.2244410307772671E-02    4.8694876122412376E+00
Au    1.4877072115969270E+01   -2.4331877209371394E-02    4.8726227054460258E+00
Au    1.4601185089590965E+00    2.5376357646140901E+00    4.8758039411209575E+00
Au    4.3897947082590667E+00    2.5145700560228454E+00    4.8680652857875817E+00
Au    7.3552081274584067E+00    2.4749748355959569E+00    4.8571883665906652E+00
Au    1.0456670520112242E+01    2.4749747255876753E+00    4.8571883519511028E+00
Au    1.3422084153496140E+01    2.5145696149276171E+00    4.8680652936440669E+00
Au    1.6351760330938195E+01    2.5376356347989710E+00    4.8758037694111875E+00
Au    3.5801308038793782E-07    5.1156079945177062E+00    4.8689947822790751E+00
Au    2.9040585492416118E+00    5.1098650260956120E+00    4.8681497350465595E+00
Au    5.8059251069506619E+00    5.0578711485605945E+00    4.9022688304419164E+00
Au    8.9059396268265623E+00    4.9117139723983199E+00    4.7935699459469978E+00
Au    1.2005954592867754E+01    5.0578699734691845E+00    4.9022668401357574E+00
Au    1.4907820507175188E+01    5.1098648847535566E+00    4.8681495722420092E+00
Au    1.4550702725309070E+00    7.6981250810441431E+00    4.8680770159941247E+00
Au    4.3460790057889156E+00    7.7040751010172723E+00    4.8574086520620376E+00
Au    7.2333954473283972E+00    7.8311588655978595E+00    4.7829791313254510E+00
Au    1.0578483374551555E+01    7.8311593102203894E+00    4.7829783996192772E+00
Au    1.3465800073575183E+01    7.7040750637063340E+00    4.8574086782344583E+00
Au    1.6356808678003091E+01    7.6981250241034154E+00    4.8680767499654864E+00
Au    8.0003376182049396E-08    1.0266342636367714E+01    4.8611443493301962E+00
Au    2.9383404839512095E+00    1.0284723095849754E+01    4.8585246989670825E+00
Au    5.8708165752798784E+00    1.0376969291929992E+01    4.8525903513409929E+00
Au    8.9059388002438418E+00    1.0436289038524574E+01    4.8985051036009954E+00
Au    1.1941062379593763E+01    1.0376969851203313E+01    4.8525904136463494E+00
Au    1.4873538282745125E+01    1.0284723211755340E+01    4.8585248636048783E+00
Au    1.4713487031261760E+00    1.2835705641520503E+01    4.8651125582982635E+00
Au    4.4118435067184558E+00    1.2872553323823174E+01    4.8694988504050691E+00
Au    7.3950514865871879E+00    1.2913279527852801E+01    4.8570985634362982E+00
Au    1.0416826874224453E+01    1.2913279459067423E+01    4.8570984347603376E+00
Au    1.3400035221576092E+01    1.2872553664160568E+01    4.8694989220910898E+00
Au    1.6340529789803448E+01    1.2835705677442073E+01    4.8651125954211718E+00
Au    7.4191172963423497E+00    6.0192955606412761E+00    6.9208466920168368E+00
Au    1.0392763889580396E+01    6.0192987362267871E+00    6.9208463630013437E+00
Au    8.9059421355069119E+00    8.5628285813218312E+00    6.9368428161564104E+00
Au    8.9059379977351636E+00    6.8053532466205109E+00    9.0888660145402191E+00
Au    8.9057734591798905E+00    6.2475061444322106E+00    1.1642830490232635E+01
Au    8.9062650488417709E+00    7.9202284353134855E+00    1.3659269335941602E+01
Au    8.9056083319592805E+00    7.3841806581413136E+00    1.6221072624303080E+01
Au    8.9061691666135872E+00    5.8575874316423384E+00    1.8341956747821936E+01
Au    8.9058627323625039E+00    7.2287121348117278E+00    2.0555914310369893E+01
Au    8.9059390320845644E+00    6.8559988392264088E+00    2.3156939474723959E+01
Au    8.9059393499985866E+00    5.1438458621216645E+00    2.5356073588399511E+01
Au    7.4398865555778437E+00    7.6944445805580193E+00    2.5339053260384620E+01
Au    1.0371993528785017E+01    7.6944447954449888E+00    2.5339055556985368E+01
Au   -9.3913584111122785E-08    1.7128375186289782E+00    2.7484156221175819E+01
Au    2.9444710265601102E+00    1.7109181197904877E+00    2.7479462893503701E+01
Au    5.8929066370629668E+00    1.6718021587393617E+00    2.7486539818725920E+01
Au    8.9059390638106350E+00    1.6669701779835491E+00    2.7469980184495842E+01
Au    1.1918971667959362E+01    1.6718020130455842E+00    2.7486539898307321E+01
Au    1.4867407612364559E+01    1.7109177429658164E+00    2.7479462948949632E+01
Au    1.4702852654714393E+00    4.2829735773588506E+00    2.7483342413211023E+01
Au    4.4038158772014224E+00    4.2652879497107126E+00    2.7494340025183064E+01
Au    7.3538908507729106E+00    4.1752892418461673E+00    2.7460953068043004E+01
Au    1.0457987126559559E+01    4.1752894970164371E+00    2.7460952244535786E+01
Au    1.3408062836174549E+01    4.2652872768736980E+00    2.7494339714236737E+01
Au    1.6341593319233056E+01    4.2829734643124402E+00    2.7483342878719096E+01
Au    1.3888243206756095E-07    6.8647238388339176E+00    2.7480909825908462E+01
Au    2.9136290441574286E+00    6.8604029959751651E+00    2.7482237451402412E+01
Au    5.8124756465698910E+00    6.8725746229552271E+00    2.7451794106524954E+01
Au    8.9059388826510766E+00    6.8628959022607239E+00    2.7662331646129584E+01
Au    1.1999403441404253E+01    6.8725735001908479E+00    2.7451795137530677E+01
Au    1.4898249767772839E+01    6.8604030365303723E+00    2.7482237602464846E+01
Au    1.4659118209059809E+00    9.4431748744236419E+00    2.7477007805627203E+01
Au    4.3963832491739794E+00    9.4645718135742367E+00    2.7459779200199090E+01
Au    7.3449452830788902E+00    9.5349032387489281E+00    2.7445086182615157E+01
Au    1.0466932615745957E+01    9.5349048622018966E+00    2.7445087578030630E+01
Au    1.3415494813707040E+01    9.4645717685131263E+00    2.7459779623288203E+01
Au    1.6345966571583226E+01    9.4431750248537334E+00    2.7477008063674049E+01
Au   -4.0233800559531753E-09    1.2011064466680173E+01    2.7476861269837563E+01
Au    2.9475584913904456E+00    1.2016339583944340E+01    2.7478223939936097E+01
Au    5.9044141852675258E+00    1.2051348352111203E+01    2.7484418237605485E+01
Au    8.9059387726980273E+00    1.2043995791345369E+01    2.7495181213315792E+01
Au    1.1907464331539332E+01    1.2051348717414164E+01    2.7484418241472380E+01
Au    1.4864319935013606E+01    1.2016339592790677E+01    2.7478223971519700E+01
Au    1.4742796116183949E+00    1.4571383252817480E+01    2.7482076749315272E+01
Au    4.4260140921138031E+00    1.4575055052052837E+01    2.7482073384498761E+01
Au    7.4102665925020910E+00    1.4573932815797694E+01    2.7486978681296165E+01
Au    1.0401611692968512E+01    1.4573932772544504E+01    2.7486978858095043E+01
Au    1.3385864384162950E+01    1.4575055084361100E+01    2.7482073401211007E+01
Au    1.6337598728407119E+01    1.4571383342675274E+01    2.7482076498191891E+01
Au   -4.7438414550165353E-08    6.5982381148113325E-03    2.9935134117510636E+01
Au    2.9643670021573247E+00    6.3252922322560041E-03    2.9933405696171281E+01
Au    5.9345711685059124E+00   -6.2731334387125214E-03    2.9937143349502385E+01
Au    8.9059392195790856E+00    4.3905106032194174E-03    2.9929327717064076E+01
Au    1.1877307171338082E+01   -6.2732116418907228E-03    2.9937143467925122E+01
Au    1.4847511353755468E+01    6.3251996993924546E-03    2.9933405792795465E+01
Au    1.4833326362736079E+00    2.5789191425313351E+00    2.9932330381747953E+01
Au    4.4531942709239551E+00    2.5716213794643386E+00    2.9936782418961965E+01
Au    7.4143943855809251E+00    2.5687532871771626E+00    2.9927847838018515E+01
Au    1.0397484003892442E+01    2.5687534233165623E+00    2.9927847366690308E+01
Au    1.3358684066923580E+01    2.5716212581722870E+00    2.9936782446407836E+01
Au    1.6328545787313793E+01    2.5789189971321158E+00    2.9932330545645382E+01
Au    5.0015700547358083E-08    5.1510594321289718E+00    2.9932265642979264E+01
Au    2.9665099513655981E+00    5.1494234881896910E+00    2.9936974124592602E+01
Au    5.9402293326299525E+00    5.1493229511682390E+00    2.9892011003532918E+01
Au    8.9059391973001638E+00    5.1235555979231764E+00    2.9931857884322124E+01
Au    1.1871648990616906E+01    5.1493225031129883E+00    2.9892010803921842E+01
Au    1.4845368331226339E+01    5.1494235203203020E+00    2.9936974237309549E+01
Au    1.4829602738824661E+00    7.7240821974546989E+00    2.9934709274321214E+01
Au    4.4498043724975789E+00    7.7141759511572197E+00    2.9926269662864872E+01
Au    7.4059759282667059E+00    7.7228461018586101E+00    2.9932456237453643E+01
Au    1.0405902505575879E+01    7.7228460849419616E+00    2.9932456256299712E+01
Au    1.3362074011062596E+01    7.7141759535829797E+00    2.9926269605964464E+01
Au    1.6328918267234197E+01    7.7240821368060404E+00    2.9934709325676405E+01
Au    6.9556388491785525E-08    1.0294508430395357E+01    2.9932349593185787E+01
Au    2.9732831661666168E+00    1.0284293850077999E+01    2.9928328364648792E+01
Au    5.9367474696780871E+00    1.0290595344260165E+01    2.9925469646852616E+01
Au    8.9059387909186718E+00    1.0272008991007397E+01    2.9888059802339683E+01
Au    1.1875131001735886E+01    1.0290595406591112E+01    2.9925469844553501E+01
Au    1.4838595383163282E+01    1.0284293957752347E+01    2.9928328560838338E+01
Au    1.4828589927190605E+00    1.2859846883136393E+01    2.9934208584913929E+01
Au    4.4436570697637690E+00    1.2857396813948581E+01    2.9935310396653684E+01
Au    7.4201730217733139E+00    1.2849607133959086E+01    2.9936754247615802E+01
Au    1.0391705228243941E+01    1.2849606982417724E+01    2.9936754215740706E+01
Au    1.3368221311509069E+01    1.2857396852480203E+01    2.9935310490692824E+01
Au    1.6329019434243015E+01    1.2859846855599860E+01    2.9934208564207236E+01
     &END COORD
     &KIND Au
       BASIS_SET TZVP-MOLOPT-SR-GTH-q11
       ELEMENT Au
       POTENTIAL GTH-PBE-q11
       &POTENTIAL
1 0 10
0.5900000000000000E+00 1  0.1051717881000000E+02
3
0.5438473300000000E+00 2  0.5786811030000000E+01 -0.2250679660000000E+01
0.2905614950000000E+01
0.6091729800000000E+00 2  0.4284048730000000E+01 -0.4071285200000000E+01
0.4817209620000000E+01
0.4373092200000000E+00 2 -0.7403281240000000E+01  0.3010193070000000E+01
-0.3413238110000000E+01
       &END POTENTIAL
     &END KIND
     &TOPOLOGY
       COORD_FILE_NAME junction_65.xyz
       COORD_FILE_FORMAT  XYZ
       NUMBER_OF_ATOMS  193
       MULTIPLE_UNIT_CELL  1 1 1
     &END TOPOLOGY
   &END SUBSYS
   &PRINT
     &TOTAL_NUMBERS  ON
     &END TOTAL_NUMBERS
   &END PRINT
 &END FORCE_EVAL
