 # Version information for this restart file 
 # current date 2022-05-03 16:52:18.884
 # current working dir /rds/general/user/jj1921/home/junction/ortho/cell_65
 # Program compiled at                              Thu 12 Jul 13:52:12 BST 2018
 # Program compiled on                                      build-2.hpc.ic.ac.uk
 # Program compiled for                                       Linux-x86-64-intel
 # Source code revision number                                         svn:18464
 &GLOBAL
   PRINT_LEVEL  MEDIUM
   PROJECT_NAME Au_junction
   RUN_TYPE  CELL_OPT
 &END GLOBAL
 &MOTION
   &CELL_OPT
     OPTIMIZER  BFGS
     STEP_START_VAL  113
     TYPE  DIRECT_CELL_OPT
     KEEP_ANGLES  T
     KEEP_SYMMETRY  T
     CONSTRAINT  XY
   &END CELL_OPT
   &CONSTRAINT
     &FIXED_ATOMS
       COMPONENTS_TO_FIX  XYZ
       LIST  1..36
     &END FIXED_ATOMS
   &END CONSTRAINT
   &PRINT
     &TRAJECTORY  SILENT
       &EACH
         CELL_OPT  1
       &END EACH
     &END TRAJECTORY
   &END PRINT
 &END MOTION
 &FORCE_EVAL
   METHOD  QS
   STRESS_TENSOR  ANALYTICAL
   &DFT
     BASIS_SET_FILE_NAME /rds/general/user/jj1921/home/BASIS_COM_MOLOPT_GTH
     POTENTIAL_FILE_NAME /rds/general/user/jj1921/home/GTH_POTENTIALS
     &SCF
       MAX_SCF  500
       EPS_SCF     9.9999999999999995E-08
       CHOLESKY  INVERSE
       SCF_GUESS  ATOMIC
       ADDED_MOS  20
       &DIAGONALIZATION  T
         ALGORITHM  STANDARD
       &END DIAGONALIZATION
       &SMEAR  T
         METHOD  FERMI_DIRAC
         ELECTRONIC_TEMPERATURE     3.0000000000000000E+02
       &END SMEAR
       &MIXING  T
         METHOD  BROYDEN_MIXING
         ALPHA     4.0000000000000002E-01
         BETA     5.0000000000000000E-01
         NBUFFER  8
       &END MIXING
     &END SCF
     &QS
       EPS_DEFAULT     1.0000000000000000E-14
       METHOD  GPW
     &END QS
     &MGRID
       NGRIDS  4
       CUTOFF     5.0000000000000000E+02
       REL_CUTOFF     4.0000000000000000E+01
     &END MGRID
     &XC
       DENSITY_CUTOFF     1.0000000000000000E-10
       GRADIENT_CUTOFF     1.0000000000000000E-10
       TAU_CUTOFF     1.0000000000000000E-10
       &XC_FUNCTIONAL  NO_SHORTCUT
         &PBE  T
         &END PBE
       &END XC_FUNCTIONAL
     &END XC
     &KPOINTS
       SCHEME MONKHORST-PACK 4 4 1
       FULL_GRID  T
     &END KPOINTS
   &END DFT
   &SUBSYS
     &CELL
       A     1.7811878396732904E+01    0.0000000000000000E+00    0.0000000000000000E+00
       B     0.0000000000000000E+00    1.5425539180689926E+01    0.0000000000000000E+00
       C     0.0000000000000000E+00    0.0000000000000000E+00    3.2839356069872579E+01
       PERIODIC  XYZ
       MULTIPLE_UNIT_CELL  1 1 1
       SYMMETRY  ORTHORHOMBIC
     &END CELL
     &COORD
Au    1.4843231999999993E+00    8.5697439999999980E-01    0.0000000000000000E+00
Au    4.4529695999999976E+00    8.5697439999999980E-01    0.0000000000000000E+00
Au    7.4216159999999967E+00    8.5697439999999980E-01    0.0000000000000000E+00
Au    1.0390262399999997E+01    8.5697439999999980E-01    0.0000000000000000E+00
Au    1.3358908799999995E+01    8.5697439999999980E-01    0.0000000000000000E+00
Au    1.6327555199999992E+01    8.5697439999999980E-01    0.0000000000000000E+00
Au    0.0000000000000000E+00    3.4278975999999992E+00    0.0000000000000000E+00
Au    2.9686463999999986E+00    3.4278975999999992E+00    0.0000000000000000E+00
Au    5.9372927999999972E+00    3.4278975999999992E+00    0.0000000000000000E+00
Au    8.9059391999999953E+00    3.4278975999999992E+00    0.0000000000000000E+00
Au    1.1874585599999994E+01    3.4278975999999992E+00    0.0000000000000000E+00
Au    1.4843231999999993E+01    3.4278975999999992E+00    0.0000000000000000E+00
Au    1.4843231999999993E+00    5.9988207899999981E+00    0.0000000000000000E+00
Au    4.4529695999999976E+00    5.9988207899999981E+00    0.0000000000000000E+00
Au    7.4216159999999967E+00    5.9988207899999981E+00    0.0000000000000000E+00
Au    1.0390262399999997E+01    5.9988207899999981E+00    0.0000000000000000E+00
Au    1.3358908799999995E+01    5.9988207899999981E+00    0.0000000000000000E+00
Au    1.6327555199999992E+01    5.9988207899999981E+00    0.0000000000000000E+00
Au    0.0000000000000000E+00    8.5697439899999992E+00    0.0000000000000000E+00
Au    2.9686463999999986E+00    8.5697439899999992E+00    0.0000000000000000E+00
Au    5.9372927999999972E+00    8.5697439899999992E+00    0.0000000000000000E+00
Au    8.9059391999999953E+00    8.5697439899999992E+00    0.0000000000000000E+00
Au    1.1874585599999994E+01    8.5697439899999992E+00    0.0000000000000000E+00
Au    1.4843231999999993E+01    8.5697439899999992E+00    0.0000000000000000E+00
Au    1.4843231999999993E+00    1.1140667189999997E+01    0.0000000000000000E+00
Au    4.4529695999999976E+00    1.1140667189999997E+01    0.0000000000000000E+00
Au    7.4216159999999967E+00    1.1140667189999997E+01    0.0000000000000000E+00
Au    1.0390262399999997E+01    1.1140667189999997E+01    0.0000000000000000E+00
Au    1.3358908799999995E+01    1.1140667189999997E+01    0.0000000000000000E+00
Au    1.6327555199999992E+01    1.1140667189999997E+01    0.0000000000000000E+00
Au    0.0000000000000000E+00    1.3711590380000002E+01    0.0000000000000000E+00
Au    2.9686463999999986E+00    1.3711590380000002E+01    0.0000000000000000E+00
Au    5.9372927999999972E+00    1.3711590380000002E+01    0.0000000000000000E+00
Au    8.9059391999999953E+00    1.3711590380000002E+01    0.0000000000000000E+00
Au    1.1874585599999994E+01    1.3711590380000002E+01    0.0000000000000000E+00
Au    1.4843231999999993E+01    1.3711590380000002E+01    0.0000000000000000E+00
Au    7.5596943190391133E-09    1.6995799728713898E+00    2.4102550221663455E+00
Au    2.9545262371040306E+00    1.7034633871310556E+00    2.4079947526754073E+00
Au    5.9171701144936755E+00    1.7133235066128829E+00    2.4049189532446422E+00
Au    8.9059391968884629E+00    1.7356675887503259E+00    2.4144967494835954E+00
Au    1.1894708288715073E+01    1.7133234987038608E+00    2.4049189463300014E+00
Au    1.4857352174788231E+01    1.7034633762546847E+00    2.4079947567693885E+00
Au    1.4773788448792491E+00    4.2692891983083179E+00    2.4047722693557922E+00
Au    4.4438498724074913E+00    4.2789470759441439E+00    2.4241949279904587E+00
Au    7.4048428756407247E+00    4.2885457018242850E+00    2.4178417043153644E+00
Au    1.0407035514010113E+01    4.2885457030190564E+00    2.4178417215079682E+00
Au    1.3368028564366904E+01    4.2789470553064994E+00    2.4241948628214942E+00
Au    1.6334499579298864E+01    4.2692892005375747E+00    2.4047722715030448E+00
Au    6.5978561512920439E-09    6.8437117744388782E+00    2.4057842920992112E+00
Au    2.9590482726729328E+00    6.8422987204324155E+00    2.4050508613806239E+00
Au    5.9277808803042493E+00    6.8425886204972963E+00    2.4151722192629652E+00
Au    8.9059391997680049E+00    6.8567417066708245E+00    2.4794360487981666E+00
Au    1.1884097513687825E+01    6.8425886334007249E+00    2.4151722356101128E+00
Au    1.4852830135807150E+01    6.8422987205738011E+00    2.4050508581400352E+00
Au    1.4891495507157519E+00    9.4148146148490675E+00    2.4104040230887946E+00
Au    4.4597782786036833E+00    9.4173057261143089E+00    2.4115068691640675E+00
Au    7.4263879513182092E+00    9.4413175329009338E+00    2.4140047810519456E+00
Au    1.0385490455498770E+01    9.4413175334657655E+00    2.4140047734807428E+00
Au    1.3352100124484584E+01    9.4173057354461740E+00    2.4115068796518644E+00
Au    1.6322728848439546E+01    9.4148146156906378E+00    2.4104040188556741E+00
Au    9.8142438829479263E-10    1.1981077831131458E+01    2.4133248733351333E+00
Au    2.9710696823294653E+00    1.1987923537787051E+01    2.4102068407289123E+00
Au    5.9351739541396844E+00    1.2011511298824084E+01    2.4021285997130919E+00
Au    8.9059392010302805E+00    1.2010078209714433E+01    2.4233930775118080E+00
Au    1.1876704449194859E+01    1.2011511300475505E+01    2.4021286045867623E+00
Au    1.4840808719151880E+01    1.1987923542483221E+01    2.4102068355576476E+00
Au    1.4796846681349747E+00    1.4553172124940872E+01    2.4115444736081755E+00
Au    4.4420031858669269E+00    1.4567561153038014E+01    2.4071682688434621E+00
Au    7.4194241652263591E+00    1.4588295038583105E+01    2.4028994455446084E+00
Au    1.0392454231562770E+01    1.4588295037906578E+01    2.4028994461181794E+00
Au    1.3369875215719535E+01    1.4567561153405553E+01    2.4071682656703026E+00
Au    1.6332193737985929E+01    1.4553172118988146E+01    2.4115444688740002E+00
Au    6.4049249265958735E-09   -1.9525772964510819E-02    4.8696097956122868E+00
Au    2.9351010629224277E+00   -2.0533088245904049E-02    4.8726852053249576E+00
Au    5.8964593734016200E+00   -1.9794900851391784E-02    4.8674290260893871E+00
Au    8.9059392005203346E+00   -6.4459506687881616E-04    4.8535147726146262E+00
Au    1.1915419025802530E+01   -1.9794901038534020E-02    4.8674290217527343E+00
Au    1.4876777346478342E+01   -2.0533098349713362E-02    4.8726852095655619E+00
Au    1.4595841697918135E+00    2.5452281242118269E+00    4.8752370178500435E+00
Au    4.3871598186977625E+00    2.5163904373985995E+00    4.8659906711386487E+00
Au    7.3532410971955748E+00    2.4773343648079340E+00    4.8500466205655250E+00
Au    1.0458637306404377E+01    2.4773343697177679E+00    4.8500466174067718E+00
Au    1.3424718600567926E+01    2.5163904153661947E+00    4.8659906685812073E+00
Au    1.6352294245699710E+01    2.5452281188461976E+00    4.8752370061340020E+00
Au    2.0191626988184291E-08    5.1252260511756971E+00    4.8694161086615431E+00
Au    2.8997566645403037E+00    5.1154875211461572E+00    4.8657336538352682E+00
Au    5.8045375153164249E+00    5.0620361563900946E+00    4.8981135131468543E+00
Au    8.9059391958544989E+00    4.9146643017465799E+00    4.7910769515960032E+00
Au    1.2007340961821733E+01    5.0620361000216230E+00    4.8981133473766665E+00
Au    1.4912121770134478E+01    5.1154875206503316E+00    4.8657336430992215E+00
Au    1.4532278250704338E+00    7.7082423492499492E+00    4.8684789103337742E+00
Au    4.3420583931814321E+00    7.7066053722402037E+00    4.8521705219374303E+00
Au    7.2310388523701814E+00    7.8233001858358744E+00    4.7817825375510630E+00
Au    1.0580839545635341E+01    7.8233002162847063E+00    4.7817825342566653E+00
Au    1.3469820022736725E+01    7.7066053810624728E+00    4.8521705238386703E+00
Au    1.6358650590944912E+01    7.7082423485713578E+00    4.8684788933656380E+00
Au    4.5493364479754155E-09    1.0274300254057799E+01    4.8609463635258221E+00
Au    2.9399976617064496E+00    1.0291715391750804E+01    4.8576288746410246E+00
Au    5.8729143960803176E+00    1.0377326240770783E+01    4.8458089487195366E+00
Au    8.9059391913604102E+00    1.0426428563385064E+01    4.8928446909083103E+00
Au    1.1938964027627662E+01    1.0377326262880787E+01    4.8458089610310644E+00
Au    1.4871880753437233E+01    1.0291715400983390E+01    4.8576288839891051E+00
Au    1.4723978925709946E+00    1.2843127194454778E+01    4.8631822261437687E+00
Au    4.4159793011974884E+00    1.2876352569410857E+01    4.8687211696960357E+00
Au    7.3965209209961351E+00    1.2914505129708310E+01    4.8520215750440228E+00
Au    1.0415357480735530E+01    1.2914505131419363E+01    4.8520215736232117E+00
Au    1.3395899111826999E+01    1.2876352585493702E+01    4.8687211742397407E+00
Au    1.6339480510086510E+01    1.2843127195859639E+01    4.8631822286910040E+00
Au    7.4171452024142166E+00    6.0006320205944395E+00    6.9277857714178230E+00
Au    1.0394733407780462E+01    6.0006320623174609E+00    6.9277856643915223E+00
Au    8.9059392902745280E+00    8.5520325139010538E+00    6.9310277895406420E+00
Au    8.9059394940317755E+00    6.8055170942827345E+00    9.0887933215947641E+00
Au    8.9059293580756158E+00    6.2663685327443597E+00    1.1655549753765014E+01
Au    8.9059617537624938E+00    7.6346634242331151E+00    1.3896743163887217E+01
Au    8.9059138511215554E+00    7.1979944016550297E+00    1.6478706682440819E+01
Au    8.9059551824722334E+00    5.9875872274527104E+00    1.8802327343288461E+01
Au    8.9059347474923634E+00    7.2869271544031902E+00    2.1064126284659434E+01
Au    8.9059391823196883E+00    6.8708455882472705E+00    2.3657118728719137E+01
Au    8.9059391968144102E+00    5.1537284452758190E+00    2.5852629302654734E+01
Au    7.4337043124984783E+00    7.7067597493059754E+00    2.5837128758194687E+01
Au    1.0378174149185861E+01    7.7067597493798141E+00    2.5837128869143946E+01
Au   -9.8596367760333065E-10    1.7111516306391290E+00    2.7980525225337896E+01
Au    2.9441209306502847E+00    1.7102514119920789E+00    2.7978226912162516E+01
Au    5.8925100583517613E+00    1.6712684609542086E+00    2.7987317712577443E+01
Au    8.9059391996518045E+00    1.6662781728621390E+00    2.7975090888468571E+01
Au    1.1919368337911052E+01    1.6712684614630327E+00    2.7987317717811209E+01
Au    1.4867757478978708E+01    1.7102513945193467E+00    2.7978226913118732E+01
Au    1.4702060234664074E+00    4.2798832462332443E+00    2.7980528426905362E+01
Au    4.4043620621057444E+00    4.2651298248656806E+00    2.7993613053492435E+01
Au    7.3594335252069740E+00    4.1769639202804187E+00    2.7955641116993238E+01
Au    1.0452444843948449E+01    4.1769639396996654E+00    2.7955641069061244E+01
Au    1.3407516349697303E+01    4.2651297950739888E+00    2.7993613043822421E+01
Au    1.6341672380029785E+01    4.2798832435113789E+00    2.7980528446025410E+01
Au    5.3454966358236434E-09    6.8583513248997132E+00    2.7976433303723571E+01
Au    2.9126085201829039E+00    6.8578460926615525E+00    2.7981303286300047E+01
Au    5.8147077887215319E+00    6.8734705095421962E+00    2.7950758636003503E+01
Au    8.9059391832889165E+00    6.8742723390302301E+00    2.8160947281526692E+01
Au    1.1997170639996432E+01    6.8734704549006702E+00    2.7950758665909778E+01
Au    1.4899269893470930E+01    6.8578460940244330E+00    2.7981303291092640E+01
Au    1.4659011734486791E+00    9.4384663548909309E+00    2.7973037169995141E+01
Au    4.3963917500904115E+00    9.4624431480626452E+00    2.7959611632878140E+01
Au    7.3413615532281948E+00    9.5377100661338865E+00    2.7943564396190116E+01
Au    1.0470516836074625E+01    9.5377101410167313E+00    2.7943564458810638E+01
Au    1.3415486637391613E+01    9.4624431395253321E+00    2.7959611651001488E+01
Au    1.6345977229593938E+01    9.4384663604868262E+00    2.7973037181260633E+01
Au    3.4757970733516704E-09    1.2002723689749359E+01    2.7974676636172134E+01
Au    2.9463871902259577E+00    1.2013233738839686E+01    2.7975946301460073E+01
Au    5.9022172232638406E+00    1.2055447390726492E+01    2.7982974475247694E+01
Au    8.9059391823264029E+00    1.2047136768332168E+01    2.7995361986669206E+01
Au    1.1909661185300488E+01    1.2055447405910755E+01    2.7982974475474489E+01
Au    1.4865491212448246E+01    1.2013233734951266E+01    2.7975946304475642E+01
Au    1.4739681408179530E+00    1.4568446952951527E+01    2.7979689174394910E+01
Au    4.4245255628026694E+00    1.4575990363970712E+01    2.7978101280256826E+01
Au    7.4099867740073142E+00    1.4575507790049315E+01    2.7985045668306640E+01
Au    1.0401891626550800E+01    1.4575507786406281E+01    2.7985045674339556E+01
Au    1.3387352839854174E+01    1.4575990365538653E+01    2.7978101281329092E+01
Au    1.6337910257572041E+01    1.4568446958739269E+01    2.7979689166328413E+01
Au    2.4578874784340516E-10    5.2843396728605996E-03    3.0428402953961974E+01
Au    2.9646636971150948E+00    7.8281781444408463E-03    3.0429456179458676E+01
Au    5.9344358623256452E+00   -7.5489797124869140E-03    3.0435724639183693E+01
Au    8.9059392015613508E+00    3.6181000159803611E-03    3.0430372703544009E+01
Au    1.1877442537309172E+01   -7.5489839250588806E-03    3.0435724642835922E+01
Au    1.4847214700570358E+01    7.8281778117634572E-03    3.0429456182622495E+01
Au    1.4845025044469653E+00    2.5797391272543013E+00    3.0429667567772754E+01
Au    4.4506839982661104E+00    2.5743279891397908E+00    3.0435120892613583E+01
Au    7.4140175313344985E+00    2.5700847201823160E+00    3.0423443948192677E+01
Au    1.0397860870460253E+01    2.5700847335991401E+00    3.0423443924753528E+01
Au    1.3361194399781292E+01    2.5743279850734040E+00    3.0435120896918413E+01
Au    1.6327375897446437E+01    2.5797391216073793E+00    3.0429667570151878E+01
Au    1.3715381492433157E-09    5.1530315533814441E+00    3.0430767416092085E+01
Au    2.9693171356037600E+00    5.1499864419132315E+00    3.0434417739834572E+01
Au    5.9420355363027832E+00    5.1476575286837383E+00    3.0392330778942192E+01
Au    8.9059391972452921E+00    5.1227900747375905E+00    3.0427463382289417E+01
Au    1.1869842857831756E+01    5.1476575097906174E+00    3.0392330762946262E+01
Au    1.4842561259133365E+01    5.1499864441892393E+00    3.0434417751421059E+01
Au    1.4804242947851749E+00    7.7218365578894446E+00    3.0433048318051860E+01
Au    4.4478283277865094E+00    7.7131757365381448E+00    3.0422864616192012E+01
Au    7.4041722618493830E+00    7.7232977368670426E+00    3.0434256535946226E+01
Au    1.0407706139584851E+01    7.7232977364432651E+00    3.0434256536016175E+01
Au    1.3364050063505639E+01    7.7131757310482767E+00    3.0422864607276384E+01
Au    1.6331454111522206E+01    7.7218365566110894E+00    3.0433048317017356E+01
Au    4.6904519547956783E-09    1.0291492008951355E+01    3.0430612658333661E+01
Au    2.9736802868991807E+00    1.0281318109911480E+01    3.0424710455129429E+01
Au    5.9351404251771100E+00    1.0290819742983780E+01    3.0421407912892047E+01
Au    8.9059391833887815E+00    1.0273392725687584E+01    3.0386108342901856E+01
Au    1.1876737979530958E+01    1.0290819744487628E+01    3.0421407920403961E+01
Au    1.4838198118872178E+01    1.0281318112933711E+01    3.0424710466079194E+01
Au    1.4797351460608599E+00    1.2856258568824598E+01    3.0430500089681981E+01
Au    4.4414892157412176E+00    1.2857281495375322E+01    3.0432286481740395E+01
Au    7.4197799971616982E+00    1.2848175186250700E+01    3.0435522056971969E+01
Au    1.0392098398193086E+01    1.2848175180235906E+01    3.0435522056382371E+01
Au    1.3370389184513272E+01    1.2857281495636412E+01    3.0432286487292782E+01
Au    1.6332143255535861E+01    1.2856258568522254E+01    3.0430500085478005E+01
     &END COORD
     &KIND Au
       BASIS_SET TZVP-MOLOPT-SR-GTH-q11
       ELEMENT Au
       POTENTIAL GTH-PBE-q11
       &POTENTIAL
1 0 10
0.5900000000000000E+00 1  0.1051717881000000E+02
3
0.5438473300000000E+00 2  0.5786811030000000E+01 -0.2250679660000000E+01
0.2905614950000000E+01
0.6091729800000000E+00 2  0.4284048730000000E+01 -0.4071285200000000E+01
0.4817209620000000E+01
0.4373092200000000E+00 2 -0.7403281240000000E+01  0.3010193070000000E+01
-0.3413238110000000E+01
       &END POTENTIAL
     &END KIND
     &TOPOLOGY
       COORD_FILE_NAME junction_65.xyz
       COORD_FILE_FORMAT  XYZ
       NUMBER_OF_ATOMS  193
       MULTIPLE_UNIT_CELL  1 1 1
     &END TOPOLOGY
   &END SUBSYS
   &PRINT
     &TOTAL_NUMBERS  ON
     &END TOTAL_NUMBERS
   &END PRINT
 &END FORCE_EVAL
