 # Version information for this restart file 
 # current date 2022-04-30 12:39:01.199
 # current working dir /rds/general/user/jj1921/home/junction/ortho/cell_65
 # Program compiled at                              Thu 12 Jul 13:52:12 BST 2018
 # Program compiled on                                      build-2.hpc.ic.ac.uk
 # Program compiled for                                       Linux-x86-64-intel
 # Source code revision number                                         svn:18464
 &GLOBAL
   PRINT_LEVEL  MEDIUM
   PROJECT_NAME Au_junction
   RUN_TYPE  CELL_OPT
 &END GLOBAL
 &MOTION
   &CELL_OPT
     OPTIMIZER  BFGS
     STEP_START_VAL  45
     TYPE  DIRECT_CELL_OPT
     KEEP_ANGLES  T
     KEEP_SYMMETRY  T
     CONSTRAINT  XY
   &END CELL_OPT
   &CONSTRAINT
     &FIXED_ATOMS
       COMPONENTS_TO_FIX  XYZ
       LIST  1..36
     &END FIXED_ATOMS
   &END CONSTRAINT
   &PRINT
     &TRAJECTORY  SILENT
       &EACH
         CELL_OPT  1
       &END EACH
     &END TRAJECTORY
   &END PRINT
 &END MOTION
 &FORCE_EVAL
   METHOD  QS
   STRESS_TENSOR  ANALYTICAL
   &DFT
     BASIS_SET_FILE_NAME /rds/general/user/jj1921/home/BASIS_COM_MOLOPT_GTH
     POTENTIAL_FILE_NAME /rds/general/user/jj1921/home/GTH_POTENTIALS
     &SCF
       MAX_SCF  500
       EPS_SCF     9.9999999999999995E-08
       CHOLESKY  INVERSE
       SCF_GUESS  ATOMIC
       ADDED_MOS  20
       &DIAGONALIZATION  T
         ALGORITHM  STANDARD
       &END DIAGONALIZATION
       &SMEAR  T
         METHOD  FERMI_DIRAC
         ELECTRONIC_TEMPERATURE     3.0000000000000000E+02
       &END SMEAR
       &MIXING  T
         METHOD  BROYDEN_MIXING
         ALPHA     4.0000000000000002E-01
         BETA     5.0000000000000000E-01
         NBUFFER  8
       &END MIXING
     &END SCF
     &QS
       EPS_DEFAULT     1.0000000000000000E-14
       METHOD  GPW
     &END QS
     &MGRID
       NGRIDS  4
       CUTOFF     5.0000000000000000E+02
       REL_CUTOFF     4.0000000000000000E+01
     &END MGRID
     &XC
       DENSITY_CUTOFF     1.0000000000000000E-10
       GRADIENT_CUTOFF     1.0000000000000000E-10
       TAU_CUTOFF     1.0000000000000000E-10
       &XC_FUNCTIONAL  NO_SHORTCUT
         &PBE  T
         &END PBE
       &END XC_FUNCTIONAL
     &END XC
     &KPOINTS
       SCHEME MONKHORST-PACK 4 4 1
       FULL_GRID  T
     &END KPOINTS
   &END DFT
   &SUBSYS
     &CELL
       A     1.7811878396732901E+01    0.0000000000000000E+00    0.0000000000000000E+00
       B     0.0000000000000000E+00    1.5425539180689929E+01    0.0000000000000000E+00
       C     0.0000000000000000E+00    0.0000000000000000E+00    3.4021232644360509E+01
       PERIODIC  XYZ
       MULTIPLE_UNIT_CELL  1 1 1
       SYMMETRY  ORTHORHOMBIC
     &END CELL
     &COORD
Au    1.4843231999999995E+00    8.5697439999999980E-01    0.0000000000000000E+00
Au    4.4529695999999985E+00    8.5697439999999980E-01    0.0000000000000000E+00
Au    7.4216159999999975E+00    8.5697439999999980E-01    0.0000000000000000E+00
Au    1.0390262399999999E+01    8.5697439999999980E-01    0.0000000000000000E+00
Au    1.3358908799999998E+01    8.5697439999999980E-01    0.0000000000000000E+00
Au    1.6327555199999995E+01    8.5697439999999980E-01    0.0000000000000000E+00
Au    0.0000000000000000E+00    3.4278975999999992E+00    0.0000000000000000E+00
Au    2.9686463999999990E+00    3.4278975999999992E+00    0.0000000000000000E+00
Au    5.9372927999999980E+00    3.4278975999999992E+00    0.0000000000000000E+00
Au    8.9059391999999971E+00    3.4278975999999992E+00    0.0000000000000000E+00
Au    1.1874585599999996E+01    3.4278975999999992E+00    0.0000000000000000E+00
Au    1.4843231999999995E+01    3.4278975999999992E+00    0.0000000000000000E+00
Au    1.4843231999999995E+00    5.9988207899999981E+00    0.0000000000000000E+00
Au    4.4529695999999985E+00    5.9988207899999981E+00    0.0000000000000000E+00
Au    7.4216159999999975E+00    5.9988207899999981E+00    0.0000000000000000E+00
Au    1.0390262399999999E+01    5.9988207899999981E+00    0.0000000000000000E+00
Au    1.3358908799999998E+01    5.9988207899999981E+00    0.0000000000000000E+00
Au    1.6327555199999995E+01    5.9988207899999981E+00    0.0000000000000000E+00
Au    0.0000000000000000E+00    8.5697439899999974E+00    0.0000000000000000E+00
Au    2.9686463999999990E+00    8.5697439899999974E+00    0.0000000000000000E+00
Au    5.9372927999999980E+00    8.5697439899999974E+00    0.0000000000000000E+00
Au    8.9059391999999971E+00    8.5697439899999974E+00    0.0000000000000000E+00
Au    1.1874585599999996E+01    8.5697439899999974E+00    0.0000000000000000E+00
Au    1.4843231999999995E+01    8.5697439899999974E+00    0.0000000000000000E+00
Au    1.4843231999999995E+00    1.1140667189999997E+01    0.0000000000000000E+00
Au    4.4529695999999985E+00    1.1140667189999997E+01    0.0000000000000000E+00
Au    7.4216159999999975E+00    1.1140667189999997E+01    0.0000000000000000E+00
Au    1.0390262399999999E+01    1.1140667189999997E+01    0.0000000000000000E+00
Au    1.3358908799999998E+01    1.1140667189999997E+01    0.0000000000000000E+00
Au    1.6327555199999995E+01    1.1140667189999997E+01    0.0000000000000000E+00
Au    0.0000000000000000E+00    1.3711590380000001E+01    0.0000000000000000E+00
Au    2.9686463999999990E+00    1.3711590380000001E+01    0.0000000000000000E+00
Au    5.9372927999999980E+00    1.3711590380000001E+01    0.0000000000000000E+00
Au    8.9059391999999971E+00    1.3711590380000001E+01    0.0000000000000000E+00
Au    1.1874585599999996E+01    1.3711590380000001E+01    0.0000000000000000E+00
Au    1.4843231999999995E+01    1.3711590380000001E+01    0.0000000000000000E+00
Au    2.0614253894836291E-09    1.6841516593308925E+00    2.4182443085926524E+00
Au    2.9487808501480925E+00    1.7107177839025896E+00    2.4078879943427913E+00
Au    5.9085126131015810E+00    1.7149567915078361E+00    2.3966064124913369E+00
Au    8.9059392011331244E+00    1.7453605571601938E+00    2.3927919453612412E+00
Au    1.1903365787931646E+01    1.7149567905277308E+00    2.3966064134934544E+00
Au    1.4863097551917337E+01    1.7107177822818207E+00    2.4078879903530837E+00
Au    1.4820759879839782E+00    4.2589212898345217E+00    2.4019462013916941E+00
Au    4.4506716844588921E+00    4.2886839615159609E+00    2.4062491978473304E+00
Au    7.4112027937900695E+00    4.2962740732055940E+00    2.4069365233378157E+00
Au    1.0400675609463889E+01    4.2962740720028503E+00    2.4069365231678717E+00
Au    1.3361206716799119E+01    4.2886839609397898E+00    2.4062492136952596E+00
Au    1.6329802407729368E+01    4.2589212894194608E+00    2.4019462038888708E+00
Au    8.1905994285084490E-10    6.8259637455390090E+00    2.3999566806986290E+00
Au    2.9571946091105170E+00    6.8366994926551419E+00    2.3957251464287648E+00
Au    5.9326075585866631E+00    6.8585313821965199E+00    2.4031842453527674E+00
Au    8.9059392023013935E+00    6.8670870765390957E+00    2.4546579084495468E+00
Au    1.1879270841607422E+01    6.8585313829134229E+00    2.4031842460829527E+00
Au    1.4854683789767771E+01    6.8366994913768293E+00    2.3957251487701723E+00
Au    1.4824915542881818E+00    9.3990253995154678E+00    2.4101833325775908E+00
Au    4.4551081961234056E+00    9.4217399695729700E+00    2.3931013813869368E+00
Au    7.4234379644950552E+00    9.4450823891363385E+00    2.4030333195388005E+00
Au    1.0388440435023348E+01    9.4450823892633213E+00    2.4030333206912742E+00
Au    1.3356770203208653E+01    9.4217399700518545E+00    2.3931013781649222E+00
Au    1.6329386844624018E+01    9.3990254010552299E+00    2.4101833321933066E+00
Au    3.0204370149241963E-09    1.1961578334264050E+01    2.4260768512328399E+00
Au    2.9729255911034462E+00    1.1982784106065981E+01    2.4123598408371465E+00
Au    5.9397230664406200E+00    1.2022172114110260E+01    2.3946351176941771E+00
Au    8.9059392000612778E+00    1.2015494258438896E+01    2.3924469495867369E+00
Au    1.1872155333460578E+01    1.2022172114352495E+01    2.3946351160376635E+00
Au    1.4838952810475547E+01    1.1982784105964731E+01    2.4123598395174488E+00
Au    1.4803047339327244E+00    1.4539935084574047E+01    2.4274293759670740E+00
Au    4.4354200128413526E+00    1.4569727818514876E+01    2.4034618289754914E+00
Au    7.4219102307610108E+00    1.4595361556402798E+01    2.3881273583214679E+00
Au    1.0389968169474633E+01    1.4595361555551797E+01    2.3881273560934657E+00
Au    1.3376458387156879E+01    1.4569727817280985E+01    2.4034618292582612E+00
Au    1.6331573667458386E+01    1.4539935083690226E+01    2.4274293693980904E+00
Au    1.7332650055657243E-09   -2.8944324467439379E-02    4.8823716536102557E+00
Au    2.9432653308154797E+00   -8.2730021149913079E-03    4.8754977265233617E+00
Au    5.9050549098895839E+00   -1.5750290892885554E-02    4.8539256252410325E+00
Au    8.9059392012435481E+00    3.8463738327930543E-03    4.8364623469813406E+00
Au    1.1906823491353423E+01   -1.5750290860080469E-02    4.8539256253304508E+00
Au    1.4868613069751730E+01   -8.2730006675253258E-03    4.8754977222968678E+00
Au    1.4616849071883045E+00    2.5559615210842144E+00    4.8822118051283452E+00
Au    4.3946445819056805E+00    2.5228205695434434E+00    4.8522740451886381E+00
Au    7.3644939206492159E+00    2.4847122231450705E+00    4.8220617341659926E+00
Au    1.0447384481791095E+01    2.4847122241184700E+00    4.8220617338389102E+00
Au    1.3417233819694287E+01    2.5228205682374645E+00    4.8522740444646342E+00
Au    1.6350193492641928E+01    2.5559615193283314E+00    4.8822118065522693E+00
Au    1.5205666144689078E-09    5.1218460108570607E+00    4.8705577512721572E+00
Au    2.9013119665969804E+00    5.1262924704832225E+00    4.8545542045309062E+00
Au    5.8064635043890904E+00    5.0680474660589709E+00    4.8777020177413588E+00
Au    8.9059392025271400E+00    4.9276781069890161E+00    4.7944328220498624E+00
Au    1.2005414896950338E+01    5.0680474668219988E+00    4.8777020252646413E+00
Au    1.4910566439458158E+01    5.1262924731592294E+00    4.8545542136162458E+00
Au    1.4580083113731588E+00    7.6888554744039128E+00    4.8671942043373413E+00
Au    4.3629198442857717E+00    7.7152851943320444E+00    4.8254618495535437E+00
Au    7.2530064217348382E+00    7.8135508165985437E+00    4.7825663209640270E+00
Au    1.0558871984798227E+01    7.8135508226101082E+00    4.7825663243637022E+00
Au    1.3448958558128432E+01    7.7152851968107621E+00    4.8254618511919700E+00
Au    1.6353870092767590E+01    7.6888554752629386E+00    4.8671942035152664E+00
Au    3.6236357135479065E-09    1.0242716098906918E+01    4.8639911294065330E+00
Au    2.9408633383749581E+00    1.0278549719700280E+01    4.8510006825854886E+00
Au    5.8825163019451043E+00    1.0365699981120486E+01    4.8156201417505624E+00
Au    8.9059392001596152E+00    1.0454428427318947E+01    4.8616449492700857E+00
Au    1.1929362101095899E+01    1.0365699984601116E+01    4.8156201416885454E+00
Au    1.4871015061134962E+01    1.0278549722422465E+01    4.8510006831913914E+00
Au    1.4828953776933052E+00    1.2830943311577128E+01    4.8700485693363182E+00
Au    4.4278025217496744E+00    1.2874429575914426E+01    4.8613012683857910E+00
Au    7.3960680254402700E+00    1.2929089611132836E+01    4.8266126522451600E+00
Au    1.0415810378158000E+01    1.2929089613359025E+01    4.8266126536800531E+00
Au    1.3384075882752127E+01    1.2874429576183113E+01    4.8613012674702807E+00
Au    1.6328983027613827E+01    1.2830943310712406E+01    4.8700485670089675E+00
Au    7.4183888613385429E+00    5.9966629783595318E+00    6.9170762835202115E+00
Au    1.0393489543747824E+01    5.9966629812478134E+00    6.9170762835736568E+00
Au    8.9059391998923356E+00    8.6069183127620779E+00    6.8982742381880549E+00
Au    8.9059392032999902E+00    6.8988966867384338E+00    9.0425953706841113E+00
Au    8.9059391517438762E+00    6.5772917733669995E+00    1.1681830856398623E+01
Au    8.9059392416171956E+00    7.1913866608164962E+00    1.4307837578995214E+01
Au    8.9059391350182029E+00    6.9075044949767603E+00    1.6947162386495165E+01
Au    8.9059392445856425E+00    6.4609072589063379E+00    1.9577692177803797E+01
Au    8.9059391973167799E+00    7.1429213992140381E+00    2.2190381257018920E+01
Au    8.9059392026421929E+00    6.8106146643768488E+00    2.4832075683539937E+01
Au    8.9059391926207869E+00    5.1388593005887193E+00    2.7020481523545161E+01
Au    7.4397966087793224E+00    7.7137912454703921E+00    2.6998998943273193E+01
Au    1.0372081791565185E+01    7.7137912364753136E+00    2.6998998946542152E+01
Au    2.7464868020271702E-09    1.7301925839516439E+00    2.9157056108440720E+01
Au    2.9640154157358976E+00    1.7249704088611442E+00    2.9163873564853532E+01
Au    5.9127865807518045E+00    1.6788022733458337E+00    2.9189559907415497E+01
Au    8.9059391978861022E+00    1.6587579305210522E+00    2.9187680863054805E+01
Au    1.1899091815937087E+01    1.6788022776763116E+00    2.9189559903521971E+01
Au    1.4847862986441465E+01    1.7249704086945798E+00    2.9163873560389877E+01
Au    1.4798954332163916E+00    4.2938509686482904E+00    2.9163263548945327E+01
Au    4.4214672517763782E+00    4.2775339665339356E+00    2.9195721818827923E+01
Au    7.3766900557227926E+00    4.1828882518661690E+00    2.9149751226667103E+01
Au    1.0435188337611226E+01    4.1828882510830416E+00    2.9149751219454355E+01
Au    1.3390411144402165E+01    4.2775339688569076E+00    2.9195721824446853E+01
Au    1.6331982960842375E+01    4.2938509662610045E+00    2.9163263548918184E+01
Au    2.4501330342602744E-09    6.8470750247408372E+00    2.9159186894396665E+01
Au    2.9235870810637463E+00    6.8588115793429942E+00    2.9180474590765343E+01
Au    5.8374640502231001E+00    6.8771113244303193E+00    2.9141795107980649E+01
Au    8.9059391937736763E+00    6.8673395958568397E+00    2.9331258833338801E+01
Au    1.1974414349163348E+01    6.8771113324035360E+00    2.9141795113552178E+01
Au    1.4888291318849710E+01    6.8588115654973540E+00    2.9180474591975507E+01
Au    1.4694028902467835E+00    9.4204895613151933E+00    2.9155394754024737E+01
Au    4.4055464590537232E+00    9.4538598119090498E+00    2.9169744710041655E+01
Au    7.3567602699883814E+00    9.5266346621775497E+00    2.9136401664083241E+01
Au    1.0455118131761218E+01    9.5266346541760711E+00    2.9136401666268078E+01
Au    1.3406331942799364E+01    9.4538598077408054E+00    2.9169744706533656E+01
Au    1.6342475512783444E+01    9.4204895593902904E+00    2.9155394753796195E+01
Au    4.3403608897076633E-09    1.1988655107435411E+01    2.9143412775545841E+01
Au    2.9550072856411536E+00    1.2009912116308467E+01    2.9162126751187969E+01
Au    5.9103859443056717E+00    1.2044990383539826E+01    2.9185886603231360E+01
Au    8.9059392061464369E+00    1.2045356058227243E+01    2.9205608642752377E+01
Au    1.1901492460799453E+01    1.2044990384881226E+01    2.9185886600582460E+01
Au    1.4856871119293775E+01    1.2009912111565367E+01    2.9162126742621471E+01
Au    1.4862659845100723E+00    1.4575327447640174E+01    2.9150868549214835E+01
Au    4.4578544184682674E+00    1.4579930026738619E+01    2.9164730459434249E+01
Au    7.4208211050502566E+00    1.4565823148050114E+01    2.9183211594909324E+01
Au    1.0391057296706601E+01    1.4565823149635264E+01    2.9183211591755068E+01
Au    1.3354023980411679E+01    1.4579930030229304E+01    2.9164730453587751E+01
Au    1.6325612418536128E+01    1.4575327447800456E+01    2.9150868546740771E+01
Au    2.6633879916645614E-09    1.3899423971211189E-02    3.1593389228028723E+01
Au    2.9655466687164291E+00    8.0174048455563442E-03    3.1600703355959144E+01
Au    5.9359714960105547E+00   -3.8717330590512140E-03    3.1628768719481492E+01
Au    8.9059392009833456E+00    7.6053239678304848E-03    3.1625843106874889E+01
Au    1.1875906904862012E+01   -3.8717306765676442E-03    3.1628768717448679E+01
Au    1.4846331731083476E+01    8.0174045184002608E-03    3.1600703346118905E+01
Au    1.4798819847631948E+00    2.5859052471920227E+00    3.1605476171315189E+01
Au    4.4495608275543326E+00    2.5763371669525053E+00    3.1628022942628309E+01
Au    7.4100721034008759E+00    2.5723186779675666E+00    3.1622840849369908E+01
Au    1.0401806293789537E+01    2.5723186764959087E+00    3.1622840845637104E+01
Au    1.3362317572767832E+01    2.5763371673677811E+00    3.1628022937421164E+01
Au    1.6331996415897859E+01    2.5859052465013090E+00    3.1605476168511537E+01
Au    9.1967847165460285E-10    5.1600380342792445E+00    3.1613793639030636E+01
Au    2.9723777596117564E+00    5.1541029874650635E+00    3.1629702315378513E+01
Au    5.9496728522402487E+00    5.1471113260798358E+00    3.1593030756382170E+01
Au    8.9059391988284133E+00    5.1390011820134198E+00    3.1605058945744137E+01
Au    1.1862205542369392E+01    5.1471113240469775E+00    3.1593030754928655E+01
Au    1.4839500636312804E+01    5.1541029844204802E+00    3.1629702332294887E+01
Au    1.4852345534967406E+00    7.7251223439097298E+00    3.1620574367182627E+01
Au    4.4543248293350972E+00    7.7061206549877008E+00    3.1618575631033991E+01
Au    7.4237532227728504E+00    7.7099218686586566E+00    3.1609846178579868E+01
Au    1.0388125173724578E+01    7.7099218661209692E+00    3.1609846178195266E+01
Au    1.3357553569313248E+01    7.7061206529013093E+00    3.1618575628424797E+01
Au    1.6326643843161630E+01    7.7251223422322779E+00    3.1620574358913569E+01
Au    2.4240815108822325E-09    1.0294510281797551E+01    3.1608404514709537E+01
Au    2.9734299596935134E+00    1.0279790024062677E+01    3.1611617129966522E+01
Au    5.9400315534615036E+00    1.0285539971356856E+01    3.1618039696852776E+01
Au    8.9059392013545082E+00    1.0268236566880915E+01    3.1586170552971517E+01
Au    1.1871846850584030E+01    1.0285539970867665E+01    3.1618039695133323E+01
Au    1.4838448442639500E+01    1.0279790023652160E+01    3.1611617122764144E+01
Au    1.4753949522316578E+00    1.2860272555352781E+01    3.1599141057918345E+01
Au    4.4396574796996271E+00    1.2852784368327166E+01    3.1617550225860999E+01
Au    7.4180662734046008E+00    1.2845466308439834E+01    3.1637259169346159E+01
Au    1.0393812131989399E+01    1.2845466308797048E+01    3.1637259171003731E+01
Au    1.3372220924112289E+01    1.2852784367377819E+01    3.1617550225861212E+01
Au    1.6336483447535947E+01    1.2860272555615378E+01    3.1599141054698212E+01
     &END COORD
     &KIND Au
       BASIS_SET TZVP-MOLOPT-SR-GTH-q11
       ELEMENT Au
       POTENTIAL GTH-PBE-q11
       &POTENTIAL
1 0 10
0.5900000000000000E+00 1  0.1051717881000000E+02
3
0.5438473300000000E+00 2  0.5786811030000000E+01 -0.2250679660000000E+01
0.2905614950000000E+01
0.6091729800000000E+00 2  0.4284048730000000E+01 -0.4071285200000000E+01
0.4817209620000000E+01
0.4373092200000000E+00 2 -0.7403281240000000E+01  0.3010193070000000E+01
-0.3413238110000000E+01
       &END POTENTIAL
     &END KIND
     &TOPOLOGY
       COORD_FILE_NAME junction_65.xyz
       COORD_FILE_FORMAT  XYZ
       NUMBER_OF_ATOMS  193
       MULTIPLE_UNIT_CELL  1 1 1
     &END TOPOLOGY
   &END SUBSYS
   &PRINT
     &TOTAL_NUMBERS  ON
     &END TOTAL_NUMBERS
   &END PRINT
 &END FORCE_EVAL
