 # Version information for this restart file 
 # current date 2022-04-30 16:54:45.433
 # current working dir /rds/general/user/jj1921/home/junction/ortho/cell_65
 # Program compiled at                              Thu 12 Jul 13:52:12 BST 2018
 # Program compiled on                                      build-2.hpc.ic.ac.uk
 # Program compiled for                                       Linux-x86-64-intel
 # Source code revision number                                         svn:18464
 &GLOBAL
   PRINT_LEVEL  MEDIUM
   PROJECT_NAME Au_junction
   RUN_TYPE  CELL_OPT
 &END GLOBAL
 &MOTION
   &CELL_OPT
     OPTIMIZER  BFGS
     STEP_START_VAL  48
     TYPE  DIRECT_CELL_OPT
     KEEP_ANGLES  T
     KEEP_SYMMETRY  T
     CONSTRAINT  XY
   &END CELL_OPT
   &CONSTRAINT
     &FIXED_ATOMS
       COMPONENTS_TO_FIX  XYZ
       LIST  1..36
     &END FIXED_ATOMS
   &END CONSTRAINT
   &PRINT
     &TRAJECTORY  SILENT
       &EACH
         CELL_OPT  1
       &END EACH
     &END TRAJECTORY
   &END PRINT
 &END MOTION
 &FORCE_EVAL
   METHOD  QS
   STRESS_TENSOR  ANALYTICAL
   &DFT
     BASIS_SET_FILE_NAME /rds/general/user/jj1921/home/BASIS_COM_MOLOPT_GTH
     POTENTIAL_FILE_NAME /rds/general/user/jj1921/home/GTH_POTENTIALS
     &SCF
       MAX_SCF  500
       EPS_SCF     9.9999999999999995E-08
       CHOLESKY  INVERSE
       SCF_GUESS  ATOMIC
       ADDED_MOS  20
       &DIAGONALIZATION  T
         ALGORITHM  STANDARD
       &END DIAGONALIZATION
       &SMEAR  T
         METHOD  FERMI_DIRAC
         ELECTRONIC_TEMPERATURE     3.0000000000000000E+02
       &END SMEAR
       &MIXING  T
         METHOD  BROYDEN_MIXING
         ALPHA     4.0000000000000002E-01
         BETA     5.0000000000000000E-01
         NBUFFER  8
       &END MIXING
     &END SCF
     &QS
       EPS_DEFAULT     1.0000000000000000E-14
       METHOD  GPW
     &END QS
     &MGRID
       NGRIDS  4
       CUTOFF     5.0000000000000000E+02
       REL_CUTOFF     4.0000000000000000E+01
     &END MGRID
     &XC
       DENSITY_CUTOFF     1.0000000000000000E-10
       GRADIENT_CUTOFF     1.0000000000000000E-10
       TAU_CUTOFF     1.0000000000000000E-10
       &XC_FUNCTIONAL  NO_SHORTCUT
         &PBE  T
         &END PBE
       &END XC_FUNCTIONAL
     &END XC
     &KPOINTS
       SCHEME MONKHORST-PACK 4 4 1
       FULL_GRID  T
     &END KPOINTS
   &END DFT
   &SUBSYS
     &CELL
       A     1.7811878396732901E+01    0.0000000000000000E+00    0.0000000000000000E+00
       B     0.0000000000000000E+00    1.5425539180689929E+01    0.0000000000000000E+00
       C     0.0000000000000000E+00    0.0000000000000000E+00    3.4027354589487672E+01
       PERIODIC  XYZ
       MULTIPLE_UNIT_CELL  1 1 1
       SYMMETRY  ORTHORHOMBIC
     &END CELL
     &COORD
Au    1.4843231999999995E+00    8.5697439999999980E-01    0.0000000000000000E+00
Au    4.4529695999999985E+00    8.5697439999999980E-01    0.0000000000000000E+00
Au    7.4216159999999975E+00    8.5697439999999980E-01    0.0000000000000000E+00
Au    1.0390262399999999E+01    8.5697439999999980E-01    0.0000000000000000E+00
Au    1.3358908799999998E+01    8.5697439999999980E-01    0.0000000000000000E+00
Au    1.6327555199999995E+01    8.5697439999999980E-01    0.0000000000000000E+00
Au    0.0000000000000000E+00    3.4278975999999992E+00    0.0000000000000000E+00
Au    2.9686463999999990E+00    3.4278975999999992E+00    0.0000000000000000E+00
Au    5.9372927999999980E+00    3.4278975999999992E+00    0.0000000000000000E+00
Au    8.9059391999999971E+00    3.4278975999999992E+00    0.0000000000000000E+00
Au    1.1874585599999996E+01    3.4278975999999992E+00    0.0000000000000000E+00
Au    1.4843231999999995E+01    3.4278975999999992E+00    0.0000000000000000E+00
Au    1.4843231999999995E+00    5.9988207899999981E+00    0.0000000000000000E+00
Au    4.4529695999999985E+00    5.9988207899999981E+00    0.0000000000000000E+00
Au    7.4216159999999975E+00    5.9988207899999981E+00    0.0000000000000000E+00
Au    1.0390262399999999E+01    5.9988207899999981E+00    0.0000000000000000E+00
Au    1.3358908799999998E+01    5.9988207899999981E+00    0.0000000000000000E+00
Au    1.6327555199999995E+01    5.9988207899999981E+00    0.0000000000000000E+00
Au    0.0000000000000000E+00    8.5697439899999974E+00    0.0000000000000000E+00
Au    2.9686463999999990E+00    8.5697439899999974E+00    0.0000000000000000E+00
Au    5.9372927999999980E+00    8.5697439899999974E+00    0.0000000000000000E+00
Au    8.9059391999999971E+00    8.5697439899999974E+00    0.0000000000000000E+00
Au    1.1874585599999996E+01    8.5697439899999974E+00    0.0000000000000000E+00
Au    1.4843231999999995E+01    8.5697439899999974E+00    0.0000000000000000E+00
Au    1.4843231999999995E+00    1.1140667189999997E+01    0.0000000000000000E+00
Au    4.4529695999999985E+00    1.1140667189999997E+01    0.0000000000000000E+00
Au    7.4216159999999975E+00    1.1140667189999997E+01    0.0000000000000000E+00
Au    1.0390262399999999E+01    1.1140667189999997E+01    0.0000000000000000E+00
Au    1.3358908799999998E+01    1.1140667189999997E+01    0.0000000000000000E+00
Au    1.6327555199999995E+01    1.1140667189999997E+01    0.0000000000000000E+00
Au    0.0000000000000000E+00    1.3711590380000001E+01    0.0000000000000000E+00
Au    2.9686463999999990E+00    1.3711590380000001E+01    0.0000000000000000E+00
Au    5.9372927999999980E+00    1.3711590380000001E+01    0.0000000000000000E+00
Au    8.9059391999999971E+00    1.3711590380000001E+01    0.0000000000000000E+00
Au    1.1874585599999996E+01    1.3711590380000001E+01    0.0000000000000000E+00
Au    1.4843231999999995E+01    1.3711590380000001E+01    0.0000000000000000E+00
Au    2.3607611905851965E-09    1.6838482967940285E+00    2.4202497007060275E+00
Au    2.9472716575367155E+00    1.7038640976079804E+00    2.4094837624823975E+00
Au    5.9098486777429624E+00    1.7159441678858345E+00    2.3972491159371603E+00
Au    8.9059392007726732E+00    1.7423871179467196E+00    2.3986928492754047E+00
Au    1.1902029723639330E+01    1.7159441670602935E+00    2.3972491158990366E+00
Au    1.4864606743698822E+01    1.7038640967106811E+00    2.4094837597726495E+00
Au    1.4773422822747559E+00    4.2590392672013282E+00    2.4057351818134691E+00
Au    4.4485028273079257E+00    4.2860434686008198E+00    2.4149082933636170E+00
Au    7.4104248659930247E+00    4.2963983446048779E+00    2.4115181924995457E+00
Au    1.0401453537549118E+01    4.2963983438794244E+00    2.4115181925424967E+00
Au    1.3363375573940257E+01    4.2860434685791837E+00    2.4149083011715708E+00
Au    1.6334536114355316E+01    4.2590392670801593E+00    2.4057351842439072E+00
Au    7.3537281432861342E-10    6.8256324298090982E+00    2.4058271681641688E+00
Au    2.9571684384717711E+00    6.8371247704263665E+00    2.3980998717181077E+00
Au    5.9323600392880254E+00    6.8557017492409225E+00    2.4082514666562553E+00
Au    8.9059392020422923E+00    6.8639264309870027E+00    2.4605825669063770E+00
Au    1.1879518361959029E+01    6.8557017493012493E+00    2.4082514679319535E+00
Au    1.4854709960141532E+01    6.8371247696637232E+00    2.3980998734046550E+00
Au    1.4833912285655482E+00    9.4012316952443111E+00    2.4105088438259847E+00
Au    4.4540705639191795E+00    9.4225808599465370E+00    2.3989379678561278E+00
Au    7.4246500801055806E+00    9.4452581952657422E+00    2.4081245781479779E+00
Au    1.0387228319731310E+01    9.4452581960535351E+00    2.4081245789780210E+00
Au    1.3357807835893119E+01    9.4225808600214158E+00    2.3989379673628268E+00
Au    1.6328487170377766E+01    9.4012316962026841E+00    2.4105088448006864E+00
Au    3.2746566151521308E-09    1.1964147733340873E+01    2.4233710704093632E+00
Au    2.9689643135729336E+00    1.1983321946963265E+01    2.4117901730783733E+00
Au    5.9364588493407124E+00    1.2021009986157186E+01    2.3956267852981581E+00
Au    8.9059392002356947E+00    1.2017351339844977E+01    2.4033296920802214E+00
Au    1.1875419550641574E+01    1.2021009986096997E+01    2.3956267849958226E+00
Au    1.4842914087844697E+01    1.1983321946709868E+01    2.4117901723395496E+00
Au    1.4778979693437935E+00    1.4541225911399382E+01    2.4229773447564993E+00
Au    4.4347313395355501E+00    1.4570601105146025E+01    2.4072915458563928E+00
Au    7.4186990541814453E+00    1.4597807961127645E+01    2.3926231619550036E+00
Au    1.0393179346053023E+01    1.4597807960478397E+01    2.3926231613551177E+00
Au    1.3377147060427777E+01    1.4570601103972317E+01    2.4072915463598981E+00
Au    1.6333980432385555E+01    1.4541225910616456E+01    2.4229773424729744E+00
Au    1.3178582858169893E-09   -2.8365779189512795E-02    4.8826768743378173E+00
Au    2.9411508372006812E+00   -1.3050889003088421E-02    4.8746094897136896E+00
Au    5.9003933706782803E+00   -1.3506264739716931E-02    4.8545584004092825E+00
Au    8.9059392013211678E+00    5.5051283225556191E-03    4.8373328567815754E+00
Au    1.1911485030575930E+01   -1.3506265603195167E-02    4.8545584004287239E+00
Au    1.4870727564620321E+01   -1.3050888575731818E-02    4.8746094856456867E+00
Au    1.4611811239567447E+00    2.5503402459167606E+00    4.8820112931002830E+00
Au    4.3933118120547965E+00    2.5259443970632365E+00    4.8533582845536234E+00
Au    7.3620269088144363E+00    2.4861592528646610E+00    4.8253768549521050E+00
Au    1.0449851494217667E+01    2.4861592531735504E+00    4.8253768554373631E+00
Au    1.3418566589862937E+01    2.5259443966080597E+00    4.8533582850395183E+00
Au    1.6350697276327487E+01    2.5503402441007950E+00    4.8820112944038954E+00
Au    2.5955168281314390E-09    5.1192527090897677E+00    4.8707546862606534E+00
Au    2.9062053229552918E+00    5.1208652682701734E+00    4.8555303291951137E+00
Au    5.8087075088635389E+00    5.0690168305843386E+00    4.8818200497238546E+00
Au    8.9059392024460458E+00    4.9268993662828526E+00    4.7837998270670372E+00
Au    1.2003170894673053E+01    5.0690168309705310E+00    4.8818200556238525E+00
Au    1.4905673081358733E+01    5.1208652707250453E+00    4.8555303377907162E+00
Au    1.4582003526069243E+00    7.6906447135432936E+00    4.8679602823151473E+00
Au    4.3604363876825856E+00    7.7132626142214997E+00    4.8292910168006182E+00
Au    7.2506365344884749E+00    7.8147467255744560E+00    4.7719724109169306E+00
Au    1.0561241871321210E+01    7.8147467309373271E+00    4.7719724141487907E+00
Au    1.3451442015883979E+01    7.7132626172270946E+00    4.8292910181052102E+00
Au    1.6353678051263856E+01    7.6906447148139474E+00    4.8679602822961252E+00
Au    2.7736949389101149E-09    1.0248336557137570E+01    4.8663389261956551E+00
Au    2.9412977357625696E+00    1.0279469429410097E+01    4.8520401930023223E+00
Au    5.8813988726282309E+00    1.0367772377927343E+01    4.8196099217624413E+00
Au    8.9059392010310852E+00    1.0454414881229948E+01    4.8601804024654367E+00
Au    1.1930479530540854E+01    1.0367772381939378E+01    4.8196099215410637E+00
Au    1.4870580665465880E+01    1.0279469431664259E+01    4.8520401929972294E+00
Au    1.4790166401994091E+00    1.2829889098798983E+01    4.8708079429823767E+00
Au    4.4231426320969769E+00    1.2874700383027722E+01    4.8615609798280941E+00
Au    7.3978020035291427E+00    1.2926263700150322E+01    4.8297675920959087E+00
Au    1.0414076399331863E+01    1.2926263701233756E+01    4.8297675927235408E+00
Au    1.3388735772418322E+01    1.2874700384289904E+01    4.8615609788368737E+00
Au    1.6332861764804019E+01    1.2829889098258469E+01    4.8708079405191027E+00
Au    7.4174524407250360E+00    5.9999037980628680E+00    6.9195947920059471E+00
Au    1.0394425963752768E+01    5.9999038015362194E+00    6.9195947930717061E+00
Au    8.9059391996456441E+00    8.6112793141206030E+00    6.8992522260958342E+00
Au    8.9059392028976152E+00    6.8996875173850318E+00    9.0974238952411053E+00
Au    8.9059391443513150E+00    6.5364483538582636E+00    1.1690781156066988E+01
Au    8.9059392558346833E+00    7.2374268567769091E+00    1.4287778688422755E+01
Au    8.9059391166002104E+00    6.9163861104876680E+00    1.6952697319938984E+01
Au    8.9059392556549071E+00    6.4076101736179858E+00    1.9607178389131089E+01
Au    8.9059391953325946E+00    7.1819284758961830E+00    2.2151664957907361E+01
Au    8.9059392022446247E+00    6.8115040827627018E+00    2.4807077014311609E+01
Au    8.9059391920507700E+00    5.1419837102975103E+00    2.7031615677965107E+01
Au    7.4456597130350932E+00    7.7089591338889614E+00    2.7005871797231901E+01
Au    1.0366218687575598E+01    7.7089591247680742E+00    2.7005871800912210E+01
Au    2.8314262914700859E-09    1.7271207938504693E+00    2.9161538009644886E+01
Au    2.9613580417356142E+00    1.7228569675734133E+00    2.9169723107941063E+01
Au    5.9105198862298165E+00    1.6807631221338255E+00    2.9193631249624865E+01
Au    8.9059391980348313E+00    1.6618097908571421E+00    2.9188333357201991E+01
Au    1.1901358511302414E+01    1.6807631268409171E+00    2.9193631245660779E+01
Au    1.4850520359184179E+01    1.7228569665884228E+00    2.9169723102983795E+01
Au    1.4801622838587036E+00    4.2907592115733388E+00    2.9169868285238607E+01
Au    4.4237766740012265E+00    4.2782087976360161E+00    2.9199883985005950E+01
Au    7.3743234396187454E+00    4.1839350922590803E+00    2.9153668620396239E+01
Au    1.0437554952969078E+01    4.1839350923847096E+00    2.9153668614474817E+01
Au    1.3388101721861203E+01    4.2782087993990432E+00    2.9199883989178424E+01
Au    1.6331716111110453E+01    4.2907592106886270E+00    2.9169868286313790E+01
Au    2.6180948159775121E-09    6.8530739326371384E+00    2.9164871139989359E+01
Au    2.9266286835688420E+00    6.8583445055068806E+00    2.9183711045506456E+01
Au    5.8373765716458230E+00    6.8766668857592803E+00    2.9143013566032678E+01
Au    8.9059391940506938E+00    6.8666021868968272E+00    2.9316694104560259E+01
Au    1.1974501826944959E+01    6.8766668916730955E+00    2.9143013570863879E+01
Au    1.4885249716508259E+01    6.8583444934111455E+00    2.9183711046960934E+01
Au    1.4677444938770614E+00    9.4250666798794196E+00    2.9161973636133048E+01
Au    4.4057830238247258E+00    9.4556817923400498E+00    2.9171858021159657E+01
Au    7.3566422645553242E+00    9.5254848986628886E+00    2.9137260869919363E+01
Au    1.0455236138423102E+01    9.5254848933806517E+00    2.9137260872415588E+01
Au    1.3406095378926359E+01    9.4556817888623570E+00    2.9171858017554971E+01
Au    1.6344133908746024E+01    9.4250666785085855E+00    2.9161973634555597E+01
Au    4.0979371828100300E-09    1.1994267679791376E+01    2.9149975789385891E+01
Au    2.9529826228956546E+00    1.2011741205709249E+01    2.9167781416744553E+01
Au    5.9109700901816451E+00    1.2043206226612817E+01    2.9190562975094487E+01
Au    8.9059392052955388E+00    1.2038813589836193E+01    2.9208509809559995E+01
Au    1.1900908315492764E+01    1.2043206227357881E+01    2.9190562972591099E+01
Au    1.4858895781493050E+01    1.2011741202103924E+01    2.9167781409338296E+01
Au    1.4841689568450727E+00    1.4575371382763239E+01    2.9158163822137283E+01
Au    4.4496789864789612E+00    1.4578330698596526E+01    2.9171190672300192E+01
Au    7.4187094972297993E+00    1.4566314370140423E+01    2.9189141223283130E+01
Au    1.0393168904830773E+01    1.4566314370806090E+01    2.9189141220583856E+01
Au    1.3362199412743211E+01    1.4578330700742484E+01    2.9171190666903502E+01
Au    1.6327709446190028E+01    1.4575371383034962E+01    2.9158163818985699E+01
Au    1.7474029339653562E-09    1.2146304742494477E-02    3.1603451713184711E+01
Au    2.9632779494744899E+00    7.6704358667088858E-03    3.1609415371953176E+01
Au    5.9347584789763284E+00   -5.8351063839568703E-03    3.1631317272129685E+01
Au    8.9059392010498950E+00    3.5966378051193780E-03    3.1629289895395271E+01
Au    1.1877119922772284E+01   -5.8351049211828598E-03    3.1631317270332897E+01
Au    1.4848600450730510E+01    7.6704359624987411E-03    3.1609415367637229E+01
Au    1.4817664258579293E+00    2.5850373947257248E+00    3.1612566951419652E+01
Au    4.4484213105159807E+00    2.5737428025413540E+00    3.1628695615659847E+01
Au    7.4128289222665895E+00    2.5740953624570579E+00    3.1625124461459400E+01
Au    1.0399049475489978E+01    2.5740953620045524E+00    3.1625124459341350E+01
Au    1.3363457088654808E+01    2.5737428013603205E+00    3.1628695613496863E+01
Au    1.6330111974784256E+01    2.5850373929659396E+00    3.1612566950568532E+01
Au    5.5180933324277350E-10    5.1567489619933040E+00    3.1618836193361634E+01
Au    2.9683782183099710E+00    5.1518251436924389E+00    3.1629637561845499E+01
Au    5.9480862704534534E+00    5.1482164046683732E+00    3.1589362899246382E+01
Au    8.9059391986995156E+00    5.1274016234195221E+00    3.1616750680050721E+01
Au    1.1863792123876800E+01    5.1482164024346337E+00    3.1589362898064614E+01
Au    1.4843500178546346E+01    5.1518251409895246E+00    3.1629637567471271E+01
Au    1.4825780112713380E+00    7.7259705135521699E+00    3.1623708743030736E+01
Au    4.4570094027520266E+00    7.7083196831657093E+00    3.1619732154521046E+01
Au    7.4119324790465715E+00    7.7180217321118763E+00    3.1620319190814946E+01
Au    1.0399945917672609E+01    7.7180217304392142E+00    3.1620319190782499E+01
Au    1.3354868996062892E+01    7.7083196820221840E+00    3.1619732155008126E+01
Au    1.6329300385827029E+01    7.7259705119586322E+00    3.1623708740750445E+01
Au    2.1023720058899336E-09    1.0294068444586605E+01    3.1613029649683998E+01
Au    2.9710901873114524E+00    1.0282225286468700E+01    3.1616143279839434E+01
Au    5.9403455782789312E+00    1.0283488482952944E+01    3.1619054461392651E+01
Au    8.9059392017037542E+00    1.0268108994765438E+01    3.1586113322966817E+01
Au    1.1871532825132151E+01    1.0283488481926518E+01    3.1619054460126048E+01
Au    1.4840788214527230E+01    1.0282225286152739E+01    3.1616143276453784E+01
Au    1.4773959809418122E+00    1.2862550669371654E+01    3.1607625980534241E+01
Au    4.4376388001041374E+00    1.2854917092108995E+01    3.1622540390452084E+01
Au    7.4167690978474177E+00    1.2848318010025098E+01    3.1635989939100913E+01
Au    1.0395109307955003E+01    1.2848318010865011E+01    3.1635989940066956E+01
Au    1.3374239603412525E+01    1.2854917091884110E+01    3.1622540388247199E+01
Au    1.6334482418783836E+01    1.2862550669132268E+01    3.1607625977651942E+01
     &END COORD
     &KIND Au
       BASIS_SET TZVP-MOLOPT-SR-GTH-q11
       ELEMENT Au
       POTENTIAL GTH-PBE-q11
       &POTENTIAL
1 0 10
0.5900000000000000E+00 1  0.1051717881000000E+02
3
0.5438473300000000E+00 2  0.5786811030000000E+01 -0.2250679660000000E+01
0.2905614950000000E+01
0.6091729800000000E+00 2  0.4284048730000000E+01 -0.4071285200000000E+01
0.4817209620000000E+01
0.4373092200000000E+00 2 -0.7403281240000000E+01  0.3010193070000000E+01
-0.3413238110000000E+01
       &END POTENTIAL
     &END KIND
     &TOPOLOGY
       COORD_FILE_NAME junction_65.xyz
       COORD_FILE_FORMAT  XYZ
       NUMBER_OF_ATOMS  193
       MULTIPLE_UNIT_CELL  1 1 1
     &END TOPOLOGY
   &END SUBSYS
   &PRINT
     &TOTAL_NUMBERS  ON
     &END TOTAL_NUMBERS
   &END PRINT
 &END FORCE_EVAL
