 # Version information for this restart file 
 # current date 2022-05-06 07:24:01.957
 # current working dir /rds/general/user/jj1921/home/junction/ortho/cell_65
 # Program compiled at                              Thu 12 Jul 13:52:12 BST 2018
 # Program compiled on                                      build-2.hpc.ic.ac.uk
 # Program compiled for                                       Linux-x86-64-intel
 # Source code revision number                                         svn:18464
 &GLOBAL
   PRINT_LEVEL  MEDIUM
   PROJECT_NAME Au_junction
   RUN_TYPE  CELL_OPT
 &END GLOBAL
 &MOTION
   &CELL_OPT
     OPTIMIZER  BFGS
     STEP_START_VAL  157
     TYPE  DIRECT_CELL_OPT
     KEEP_ANGLES  T
     KEEP_SYMMETRY  T
     CONSTRAINT  XY
   &END CELL_OPT
   &CONSTRAINT
     &FIXED_ATOMS
       COMPONENTS_TO_FIX  XYZ
       LIST  1..36
     &END FIXED_ATOMS
   &END CONSTRAINT
   &PRINT
     &TRAJECTORY  SILENT
       &EACH
         CELL_OPT  1
       &END EACH
     &END TRAJECTORY
   &END PRINT
 &END MOTION
 &FORCE_EVAL
   METHOD  QS
   STRESS_TENSOR  ANALYTICAL
   &DFT
     BASIS_SET_FILE_NAME /rds/general/user/jj1921/home/BASIS_COM_MOLOPT_GTH
     POTENTIAL_FILE_NAME /rds/general/user/jj1921/home/GTH_POTENTIALS
     &SCF
       MAX_SCF  500
       EPS_SCF     9.9999999999999995E-08
       CHOLESKY  INVERSE
       SCF_GUESS  ATOMIC
       ADDED_MOS  20
       &DIAGONALIZATION  T
         ALGORITHM  STANDARD
       &END DIAGONALIZATION
       &SMEAR  T
         METHOD  FERMI_DIRAC
         ELECTRONIC_TEMPERATURE     3.0000000000000000E+02
       &END SMEAR
       &MIXING  T
         METHOD  BROYDEN_MIXING
         ALPHA     4.0000000000000002E-01
         BETA     5.0000000000000000E-01
         NBUFFER  8
       &END MIXING
     &END SCF
     &QS
       EPS_DEFAULT     1.0000000000000000E-14
       METHOD  GPW
     &END QS
     &MGRID
       NGRIDS  4
       CUTOFF     5.0000000000000000E+02
       REL_CUTOFF     4.0000000000000000E+01
     &END MGRID
     &XC
       DENSITY_CUTOFF     1.0000000000000000E-10
       GRADIENT_CUTOFF     1.0000000000000000E-10
       TAU_CUTOFF     1.0000000000000000E-10
       &XC_FUNCTIONAL  NO_SHORTCUT
         &PBE  T
         &END PBE
       &END XC_FUNCTIONAL
     &END XC
     &KPOINTS
       SCHEME MONKHORST-PACK 4 4 1
       FULL_GRID  T
     &END KPOINTS
   &END DFT
   &SUBSYS
     &CELL
       A     1.7811878396732908E+01    0.0000000000000000E+00    0.0000000000000000E+00
       B     0.0000000000000000E+00    1.5425539180689926E+01    0.0000000000000000E+00
       C     0.0000000000000000E+00    0.0000000000000000E+00    3.2328834171778944E+01
       PERIODIC  XYZ
       MULTIPLE_UNIT_CELL  1 1 1
       SYMMETRY  ORTHORHOMBIC
     &END CELL
     &COORD
Au    1.4843231999999993E+00    8.5697439999999980E-01    0.0000000000000000E+00
Au    4.4529695999999976E+00    8.5697439999999980E-01    0.0000000000000000E+00
Au    7.4216159999999967E+00    8.5697439999999980E-01    0.0000000000000000E+00
Au    1.0390262399999999E+01    8.5697439999999980E-01    0.0000000000000000E+00
Au    1.3358908799999995E+01    8.5697439999999980E-01    0.0000000000000000E+00
Au    1.6327555199999992E+01    8.5697439999999980E-01    0.0000000000000000E+00
Au    0.0000000000000000E+00    3.4278975999999992E+00    0.0000000000000000E+00
Au    2.9686463999999986E+00    3.4278975999999992E+00    0.0000000000000000E+00
Au    5.9372927999999972E+00    3.4278975999999992E+00    0.0000000000000000E+00
Au    8.9059391999999953E+00    3.4278975999999992E+00    0.0000000000000000E+00
Au    1.1874585599999994E+01    3.4278975999999992E+00    0.0000000000000000E+00
Au    1.4843231999999993E+01    3.4278975999999992E+00    0.0000000000000000E+00
Au    1.4843231999999993E+00    5.9988207899999981E+00    0.0000000000000000E+00
Au    4.4529695999999976E+00    5.9988207899999981E+00    0.0000000000000000E+00
Au    7.4216159999999967E+00    5.9988207899999981E+00    0.0000000000000000E+00
Au    1.0390262399999999E+01    5.9988207899999981E+00    0.0000000000000000E+00
Au    1.3358908799999995E+01    5.9988207899999981E+00    0.0000000000000000E+00
Au    1.6327555199999992E+01    5.9988207899999981E+00    0.0000000000000000E+00
Au    0.0000000000000000E+00    8.5697439900000010E+00    0.0000000000000000E+00
Au    2.9686463999999986E+00    8.5697439900000010E+00    0.0000000000000000E+00
Au    5.9372927999999972E+00    8.5697439900000010E+00    0.0000000000000000E+00
Au    8.9059391999999953E+00    8.5697439900000010E+00    0.0000000000000000E+00
Au    1.1874585599999994E+01    8.5697439900000010E+00    0.0000000000000000E+00
Au    1.4843231999999993E+01    8.5697439900000010E+00    0.0000000000000000E+00
Au    1.4843231999999993E+00    1.1140667189999997E+01    0.0000000000000000E+00
Au    4.4529695999999976E+00    1.1140667189999997E+01    0.0000000000000000E+00
Au    7.4216159999999967E+00    1.1140667189999997E+01    0.0000000000000000E+00
Au    1.0390262399999999E+01    1.1140667189999997E+01    0.0000000000000000E+00
Au    1.3358908799999995E+01    1.1140667189999997E+01    0.0000000000000000E+00
Au    1.6327555199999992E+01    1.1140667189999997E+01    0.0000000000000000E+00
Au    0.0000000000000000E+00    1.3711590380000004E+01    0.0000000000000000E+00
Au    2.9686463999999986E+00    1.3711590380000004E+01    0.0000000000000000E+00
Au    5.9372927999999972E+00    1.3711590380000004E+01    0.0000000000000000E+00
Au    8.9059391999999953E+00    1.3711590380000004E+01    0.0000000000000000E+00
Au    1.1874585599999994E+01    1.3711590380000004E+01    0.0000000000000000E+00
Au    1.4843231999999993E+01    1.3711590380000004E+01    0.0000000000000000E+00
Au    2.8509694236611882E-07    1.7039438803111253E+00    2.4131653283020218E+00
Au    2.9544369112959754E+00    1.7040148871426812E+00    2.4087439768898942E+00
Au    5.9205959093789771E+00    1.7098607099210024E+00    2.4068481852290557E+00
Au    8.9059392563514734E+00    1.7277935717284298E+00    2.4171372764660082E+00
Au    1.1891282847171883E+01    1.7098603313880663E+00    2.4068480025285108E+00
Au    1.4857442023698150E+01    1.7040145083976688E+00    2.4087441381731178E+00
Au    1.4767537386905198E+00    4.2732930659592707E+00    2.4078207896598625E+00
Au    4.4427895192309048E+00    4.2778726536148808E+00    2.4270336843410854E+00
Au    7.4041918535077009E+00    4.2849155434634136E+00    2.4164316758158688E+00
Au    1.0407686828043884E+01    4.2849155415241675E+00    2.4164320653183986E+00
Au    1.3369090154558616E+01    4.2778719452388208E+00    2.4270320322925194E+00
Au    1.6335125639530599E+01    4.2732930806377052E+00    2.4078208830069432E+00
Au    3.5858933255493967E-07    6.8480650151208469E+00    2.4080993282972725E+00
Au    2.9596099286415329E+00    6.8457811732515941E+00    2.4087969011241177E+00
Au    5.9274456401989868E+00    6.8431640887941443E+00    2.4186986061983040E+00
Au    8.9059393086657241E+00    6.8564617997603010E+00    2.4730126142510533E+00
Au    1.1884433087415706E+01    6.8431642594332711E+00    2.4186990980337328E+00
Au    1.4852269109378286E+01    6.8457809607088951E+00    2.4087968132155968E+00
Au    1.4885407822512668E+00    9.4190980127012178E+00    2.4113059564656050E+00
Au    4.4588716118051082E+00    9.4200382297666483E+00    2.4152921725971979E+00
Au    7.4265917190622250E+00    9.4411673885995313E+00    2.4190684031574001E+00
Au    1.0385287148867773E+01    9.4411674319799221E+00    2.4190681257173425E+00
Au    1.3353007082430148E+01    9.4200384502173264E+00    2.4152926629880831E+00
Au    1.6323337675409899E+01    9.4190980022781510E+00    2.4113057647700811E+00
Au   -2.5787294567831640E-08    1.1985733589541523E+01    2.4138849617858829E+00
Au    2.9686829909667596E+00    1.1991205891472241E+01    2.4102241773510484E+00
Au    5.9342981151522141E+00    1.2008243697819035E+01    2.4067955069796718E+00
Au    8.9059392453104387E+00    1.2002628249168145E+01    2.4317617880986040E+00
Au    1.1877580384273195E+01    1.2008243879876630E+01    2.4067955806457375E+00
Au    1.4843195547240752E+01    1.1991206072687170E+01    2.4102239211419385E+00
Au    1.4795456078756115E+00    1.4557621211884516E+01    2.4119522315114739E+00
Au    4.4432714114071334E+00    1.4567991613380860E+01    2.4077166300020334E+00
Au    7.4198602689184678E+00    1.4580631720991041E+01    2.4041707030178316E+00
Au    1.0392017983638521E+01    1.4580631809823926E+01    2.4041707413177149E+00
Au    1.3368607310357934E+01    1.4567991547903210E+01    2.4077164424564939E+00
Au    1.6332333068721496E+01    1.4557621110747025E+01    2.4119520180173484E+00
Au    2.9621011502696230E-07   -1.6421767429201893E-02    4.8720384301766542E+00
Au    2.9375850181436469E+00   -2.0074764571044738E-02    4.8734112946070915E+00
Au    5.9000887193705589E+00   -2.3103640480427175E-02    4.8679368663562137E+00
Au    8.9059392307337486E+00   -7.7228377904699757E-03    4.8559221438285514E+00
Au    1.1911790002784731E+01   -2.3103899264664048E-02    4.8679366174297272E+00
Au    1.4874293909240450E+01   -2.0075049158396523E-02    4.8734115715258337E+00
Au    1.4609972256361261E+00    2.5482051686550595E+00    4.8763233468496443E+00
Au    4.3909609355765848E+00    2.5153271992642154E+00    4.8644773743445846E+00
Au    7.3590353180442349E+00    2.4768183330373410E+00    4.8545900198843164E+00
Au    1.0452843748997052E+01    2.4768179946429218E+00    4.8545900683889114E+00
Au    1.3420918231914209E+01    2.5153266055198982E+00    4.8644775476128226E+00
Au    1.6350881961856093E+01    2.5482049556839947E+00    4.8763230196183329E+00
Au    6.9202536730102165E-07    5.1305110234541269E+00    4.8710335977800074E+00
Au    2.9027820245063527E+00    5.1209076467847359E+00    4.8659860698011830E+00
Au    5.8040617755745156E+00    5.0603822445658926E+00    4.8982486100797642E+00
Au    8.9059403317766517E+00    4.9192350274636976E+00    4.7813015282072122E+00
Au    1.2007818513883395E+01    5.0603804864028232E+00    4.8982461918726363E+00
Au    1.4909097369223561E+01    5.1209074303705462E+00    4.8659859044700822E+00
Au    1.4549406089919088E+00    7.7146074091082335E+00    4.8699357649643913E+00
Au    4.3481960766091063E+00    7.7137781379648880E+00    4.8583541803008599E+00
Au    7.2399368692087247E+00    7.8172114361796865E+00    4.7857122964193453E+00
Au    1.0571942369243605E+01    7.8172119386725099E+00    4.7857114869220085E+00
Au    1.3463683763911016E+01    7.7137781619044494E+00    4.8583542721645303E+00
Au    1.6356938991999247E+01    7.7146073290865207E+00    4.8699351885565392E+00
Au    1.8292085241575230E-07    1.0283241301750227E+01    4.8643703470181254E+00
Au    2.9394410767031687E+00    1.0296466887767616E+01    4.8621670312359191E+00
Au    5.8741046115155928E+00    1.0368528510585900E+01    4.8553700283196228E+00
Au    8.9059384991305439E+00    1.0416776871135857E+01    4.9145398639976978E+00
Au    1.1937774964176972E+01    1.0368529502475125E+01    4.8553701317250013E+00
Au    1.4872438165726136E+01    1.0296467167785904E+01    4.8621673790929538E+00
Au    1.4727141869773257E+00    1.2848438996682688E+01    4.8667421779542481E+00
Au    4.4184177281626242E+00    1.2873316837291094E+01    4.8702082031941156E+00
Au    7.3981387245501677E+00    1.2903671572809001E+01    4.8574919297474874E+00
Au    1.0413739714563400E+01    1.2903671428350579E+01    4.8574916621591608E+00
Au    1.3393461387646880E+01    1.2873317451512115E+01    4.8702083176311106E+00
Au    1.6339164397071514E+01    1.2848439115707546E+01    4.8667422302527346E+00
Au    7.4168714059513281E+00    5.9880239716006907E+00    6.9267449129954599E+00
Au    1.0395010360396874E+01    5.9880308008027212E+00    6.9267457610143675E+00
Au    8.9059445250709324E+00    8.5324260601955935E+00    6.9504770567816054E+00
Au    8.9059322943623229E+00    6.7565136474653142E+00    9.0979016142973137E+00
Au    8.9056135505834284E+00    6.3113357985986793E+00    1.1671226493780630E+01
Au    8.9065542684434895E+00    7.9865048355250190E+00    1.3690340873313502E+01
Au    8.9053388689130308E+00    7.3527359412797262E+00    1.6220407688170916E+01
Au    8.9063822816316893E+00    5.8439540822503826E+00    1.8353780092741292E+01
Au    8.9057806931831500E+00    7.2320402569053694E+00    2.0560879832137452E+01
Au    8.9059381628764100E+00    6.8777290696513518E+00    2.3156448702292067E+01
Au    8.9059395973152711E+00    5.1555709077393299E+00    2.5346260294301874E+01
Au    7.4361097220691734E+00    7.7084130119290375E+00    2.5334152964040722E+01
Au    1.0375771840166415E+01    7.7084130405081766E+00    2.5334157367727045E+01
Au   -1.8426258283820330E-07    1.7090991894666454E+00    2.7465664516735739E+01
Au    2.9422795457139883E+00    1.7075094681607652E+00    2.7461933706093337E+01
Au    5.8909745813790817E+00    1.6676186733552094E+00    2.7471089738509608E+01
Au    8.9059389072015716E+00    1.6641327033834903E+00    2.7457429275171961E+01
Au    1.1920903614315128E+01    1.6676183730689298E+00    2.7471089875287067E+01
Au    1.4869599371971081E+01    1.7075086404205739E+00    2.7461933847384124E+01
Au    1.4686536367603440E+00    4.2785790751986905E+00    2.7465307783035815E+01
Au    4.4014930093691031E+00    4.2610269037473456E+00    2.7477125289991793E+01
Au    7.3540254100534295E+00    4.1717307301574618E+00    2.7444683140388943E+01
Au    1.0457852188043537E+01    4.1717312076248056E+00    2.7444681493534961E+01
Au    1.3410386047156807E+01    4.2610254426779557E+00    2.7477124594631032E+01
Au    1.6343225153255222E+01    4.2785788489722583E+00    2.7465308763096473E+01
Au    3.2003752212807367E-07    6.8613837225704195E+00    2.7464000585107108E+01
Au    2.9110090723331723E+00    6.8559202417130303E+00    2.7466236869544947E+01
Au    5.8113886509593158E+00    6.8700259817960232E+00    2.7440349783612902E+01
Au    8.9059385894145269E+00    6.8672467548835812E+00    2.7653293433929242E+01
Au    1.2000491120957069E+01    6.8700235562151981E+00    2.7440351753690905E+01
Au    1.4900870191731208E+01    6.8559203208306236E+00    2.7466237175069722E+01
Au    1.4649557676986711E+00    9.4402074775590474E+00    2.7459447680944884E+01
Au    4.3955053703707589E+00    9.4616829160105489E+00    2.7444922454949332E+01
Au    7.3428363948303099E+00    9.5435651899542986E+00    2.7436064309450561E+01
Au    1.0469040856563216E+01    9.5435684945367996E+00    2.7436066884902864E+01
Au    1.3416372245605404E+01    9.4616827827449708E+00    2.7444923357284502E+01
Au    1.6346922609884100E+01    9.4402078273431407E+00    2.7459448236373461E+01
Au   -6.5000427548180300E-09    1.2005579544345565E+01    2.7460401829438432E+01
Au    2.9437634111232023E+00    1.2013958478257466E+01    2.7461068158074433E+01
Au    5.8981047633288117E+00    1.2056830787925772E+01    2.7470061785195774E+01
Au    8.9059382559149682E+00    1.2048142936847430E+01    2.7482465249627072E+01
Au    1.1913773882682497E+01    1.2056831532488694E+01    2.7470061757466709E+01
Au    1.4868115044861529E+01    1.2013958499678580E+01    2.7461068197446981E+01
Au    1.4724891564974421E+00    1.4568497999489642E+01    2.7463990820561438E+01
Au    4.4208587095832659E+00    1.4574806372755615E+01    2.7466063239775554E+01
Au    7.4090922523773992E+00    1.4574167144188905E+01    2.7473905971822820E+01
Au    1.0402785891685376E+01    1.4574167027655511E+01    2.7473906357256052E+01
Au    1.3391019828603673E+01    1.4574806417369135E+01    2.7466063299998751E+01
Au    1.6339389097740337E+01    1.4568498201508728E+01    2.7463990304596091E+01
Au   -1.1226094772733235E-07    4.6662899885158557E-03    2.9916514024831482E+01
Au    2.9632337783606344E+00    7.1893730835999852E-03    2.9918596382933778E+01
Au    5.9338272429081105E+00   -7.2301708434704594E-03    2.9925413634591045E+01
Au    8.9059392316362267E+00    2.3021685506795599E-03    2.9917411088510505E+01
Au    1.1878051022229696E+01   -7.2303277314721614E-03    2.9925413884363184E+01
Au    1.4848644533748070E+01    7.1891400566332113E-03    2.9918596594960956E+01
Au    1.4845760108862145E+00    2.5784187929215543E+00    2.9916900101144087E+01
Au    4.4503357638636940E+00    2.5709549203316229E+00    2.9920891978737885E+01
Au    7.4139550480207665E+00    2.5679600833559038E+00    2.9910439318720908E+01
Au    1.0397923337456271E+01    2.5679603458904308E+00    2.9910438341010654E+01
Au    1.3361542515038421E+01    2.5709546671495174E+00    2.9920892027295615E+01
Au    1.6327302445057516E+01    2.5784184725550765E+00    2.9916900470514790E+01
Au    1.2373691568015248E-07    5.1507099692375009E+00    2.9917939962793508E+01
Au    2.9674869953158227E+00    5.1476701585576503E+00    2.9920085063401643E+01
Au    5.9394133344507969E+00    5.1463507615098374E+00    2.9877265678785747E+01
Au    8.9059392048307995E+00    5.1198919487348356E+00    2.9918368992725132E+01
Au    1.1872464907032429E+01    5.1463498164148218E+00    2.9877265329662102E+01
Au    1.4844391159197169E+01    5.1476702156269116E+00    2.9920085260829342E+01
Au    1.4803270799769579E+00    7.7221517168931042E+00    2.9920506924768244E+01
Au    4.4452663915322859E+00    7.7130255833222412E+00    2.9910010699283657E+01
Au    7.4014637862789607E+00    7.7242483863673383E+00    2.9921895307423011E+01
Au    1.0410414718697144E+01    7.7242483548502161E+00    2.9921895284917717E+01
Au    1.3366611963949524E+01    7.7130255905690959E+00    2.9910010558235726E+01
Au    1.6331551597504319E+01    7.7221515705036801E+00    2.9920507034597890E+01
Au    1.3691590288787351E-07    1.0292088783291115E+01    2.9917865524283922E+01
Au    2.9724311177893377E+00    1.0283592207796000E+01    2.9912450378496370E+01
Au    5.9326914790288470E+00    1.0291416135071355E+01    2.9910020412502945E+01
Au    8.9059383378882977E+00    1.0273866222615414E+01    2.9874544192072943E+01
Au    1.1879187053534132E+01    1.0291416227579122E+01    2.9910020790114338E+01
Au    1.4839447609190445E+01    1.0283592451836336E+01    2.9912450775028407E+01
Au    1.4803727068415933E+00    1.2857532542971262E+01    2.9918676785887495E+01
Au    4.4412449199027026E+00    1.2858089610097645E+01    2.9922352346672653E+01
Au    7.4187746339859535E+00    1.2849309576479643E+01    2.9921971998423423E+01
Au    1.0393103457985454E+01    1.2849309245492275E+01    2.9921971911476898E+01
Au    1.3370633422124190E+01    1.2858089672495169E+01    2.9922352561154991E+01
Au    1.6331505740303115E+01    1.2857532482226080E+01    2.9918676765060948E+01
     &END COORD
     &KIND Au
       BASIS_SET TZVP-MOLOPT-SR-GTH-q11
       ELEMENT Au
       POTENTIAL GTH-PBE-q11
       &POTENTIAL
1 0 10
0.5900000000000000E+00 1  0.1051717881000000E+02
3
0.5438473300000000E+00 2  0.5786811030000000E+01 -0.2250679660000000E+01
0.2905614950000000E+01
0.6091729800000000E+00 2  0.4284048730000000E+01 -0.4071285200000000E+01
0.4817209620000000E+01
0.4373092200000000E+00 2 -0.7403281240000000E+01  0.3010193070000000E+01
-0.3413238110000000E+01
       &END POTENTIAL
     &END KIND
     &TOPOLOGY
       COORD_FILE_NAME junction_65.xyz
       COORD_FILE_FORMAT  XYZ
       NUMBER_OF_ATOMS  193
       MULTIPLE_UNIT_CELL  1 1 1
     &END TOPOLOGY
   &END SUBSYS
   &PRINT
     &TOTAL_NUMBERS  ON
     &END TOTAL_NUMBERS
   &END PRINT
 &END FORCE_EVAL
