 # Version information for this restart file 
 # current date 2022-05-03 16:06:19.344
 # current working dir /rds/general/user/jj1921/home/junction/ortho/cell_65
 # Program compiled at                              Thu 12 Jul 13:52:12 BST 2018
 # Program compiled on                                      build-2.hpc.ic.ac.uk
 # Program compiled for                                       Linux-x86-64-intel
 # Source code revision number                                         svn:18464
 &GLOBAL
   PRINT_LEVEL  MEDIUM
   PROJECT_NAME Au_junction
   RUN_TYPE  CELL_OPT
 &END GLOBAL
 &MOTION
   &CELL_OPT
     OPTIMIZER  BFGS
     STEP_START_VAL  112
     TYPE  DIRECT_CELL_OPT
     KEEP_ANGLES  T
     KEEP_SYMMETRY  T
     CONSTRAINT  XY
   &END CELL_OPT
   &CONSTRAINT
     &FIXED_ATOMS
       COMPONENTS_TO_FIX  XYZ
       LIST  1..36
     &END FIXED_ATOMS
   &END CONSTRAINT
   &PRINT
     &TRAJECTORY  SILENT
       &EACH
         CELL_OPT  1
       &END EACH
     &END TRAJECTORY
   &END PRINT
 &END MOTION
 &FORCE_EVAL
   METHOD  QS
   STRESS_TENSOR  ANALYTICAL
   &DFT
     BASIS_SET_FILE_NAME /rds/general/user/jj1921/home/BASIS_COM_MOLOPT_GTH
     POTENTIAL_FILE_NAME /rds/general/user/jj1921/home/GTH_POTENTIALS
     &SCF
       MAX_SCF  500
       EPS_SCF     9.9999999999999995E-08
       CHOLESKY  INVERSE
       SCF_GUESS  ATOMIC
       ADDED_MOS  20
       &DIAGONALIZATION  T
         ALGORITHM  STANDARD
       &END DIAGONALIZATION
       &SMEAR  T
         METHOD  FERMI_DIRAC
         ELECTRONIC_TEMPERATURE     3.0000000000000000E+02
       &END SMEAR
       &MIXING  T
         METHOD  BROYDEN_MIXING
         ALPHA     4.0000000000000002E-01
         BETA     5.0000000000000000E-01
         NBUFFER  8
       &END MIXING
     &END SCF
     &QS
       EPS_DEFAULT     1.0000000000000000E-14
       METHOD  GPW
     &END QS
     &MGRID
       NGRIDS  4
       CUTOFF     5.0000000000000000E+02
       REL_CUTOFF     4.0000000000000000E+01
     &END MGRID
     &XC
       DENSITY_CUTOFF     1.0000000000000000E-10
       GRADIENT_CUTOFF     1.0000000000000000E-10
       TAU_CUTOFF     1.0000000000000000E-10
       &XC_FUNCTIONAL  NO_SHORTCUT
         &PBE  T
         &END PBE
       &END XC_FUNCTIONAL
     &END XC
     &KPOINTS
       SCHEME MONKHORST-PACK 4 4 1
       FULL_GRID  T
     &END KPOINTS
   &END DFT
   &SUBSYS
     &CELL
       A     1.7811878396732904E+01    0.0000000000000000E+00    0.0000000000000000E+00
       B     0.0000000000000000E+00    1.5425539180689926E+01    0.0000000000000000E+00
       C     0.0000000000000000E+00    0.0000000000000000E+00    3.2856725874447037E+01
       PERIODIC  XYZ
       MULTIPLE_UNIT_CELL  1 1 1
       SYMMETRY  ORTHORHOMBIC
     &END CELL
     &COORD
Au    1.4843231999999993E+00    8.5697439999999980E-01    0.0000000000000000E+00
Au    4.4529695999999976E+00    8.5697439999999980E-01    0.0000000000000000E+00
Au    7.4216159999999967E+00    8.5697439999999980E-01    0.0000000000000000E+00
Au    1.0390262399999997E+01    8.5697439999999980E-01    0.0000000000000000E+00
Au    1.3358908799999995E+01    8.5697439999999980E-01    0.0000000000000000E+00
Au    1.6327555199999992E+01    8.5697439999999980E-01    0.0000000000000000E+00
Au    0.0000000000000000E+00    3.4278975999999992E+00    0.0000000000000000E+00
Au    2.9686463999999986E+00    3.4278975999999992E+00    0.0000000000000000E+00
Au    5.9372927999999972E+00    3.4278975999999992E+00    0.0000000000000000E+00
Au    8.9059391999999953E+00    3.4278975999999992E+00    0.0000000000000000E+00
Au    1.1874585599999994E+01    3.4278975999999992E+00    0.0000000000000000E+00
Au    1.4843231999999993E+01    3.4278975999999992E+00    0.0000000000000000E+00
Au    1.4843231999999993E+00    5.9988207899999981E+00    0.0000000000000000E+00
Au    4.4529695999999976E+00    5.9988207899999981E+00    0.0000000000000000E+00
Au    7.4216159999999967E+00    5.9988207899999981E+00    0.0000000000000000E+00
Au    1.0390262399999997E+01    5.9988207899999981E+00    0.0000000000000000E+00
Au    1.3358908799999995E+01    5.9988207899999981E+00    0.0000000000000000E+00
Au    1.6327555199999992E+01    5.9988207899999981E+00    0.0000000000000000E+00
Au    0.0000000000000000E+00    8.5697439899999992E+00    0.0000000000000000E+00
Au    2.9686463999999986E+00    8.5697439899999992E+00    0.0000000000000000E+00
Au    5.9372927999999972E+00    8.5697439899999992E+00    0.0000000000000000E+00
Au    8.9059391999999953E+00    8.5697439899999992E+00    0.0000000000000000E+00
Au    1.1874585599999994E+01    8.5697439899999992E+00    0.0000000000000000E+00
Au    1.4843231999999993E+01    8.5697439899999992E+00    0.0000000000000000E+00
Au    1.4843231999999993E+00    1.1140667189999997E+01    0.0000000000000000E+00
Au    4.4529695999999976E+00    1.1140667189999997E+01    0.0000000000000000E+00
Au    7.4216159999999967E+00    1.1140667189999997E+01    0.0000000000000000E+00
Au    1.0390262399999997E+01    1.1140667189999997E+01    0.0000000000000000E+00
Au    1.3358908799999995E+01    1.1140667189999997E+01    0.0000000000000000E+00
Au    1.6327555199999992E+01    1.1140667189999997E+01    0.0000000000000000E+00
Au    0.0000000000000000E+00    1.3711590380000002E+01    0.0000000000000000E+00
Au    2.9686463999999986E+00    1.3711590380000002E+01    0.0000000000000000E+00
Au    5.9372927999999972E+00    1.3711590380000002E+01    0.0000000000000000E+00
Au    8.9059391999999953E+00    1.3711590380000002E+01    0.0000000000000000E+00
Au    1.1874585599999994E+01    1.3711590380000002E+01    0.0000000000000000E+00
Au    1.4843231999999993E+01    1.3711590380000002E+01    0.0000000000000000E+00
Au    6.8444987372921964E-09    1.6997950592497593E+00    2.4108224313313613E+00
Au    2.9544818543984777E+00    1.7031683810103280E+00    2.4081502826723873E+00
Au    5.9169373404158794E+00    1.7137542983952563E+00    2.4045982743334462E+00
Au    8.9059391972201425E+00    1.7352012547737814E+00    2.4144897146469289E+00
Au    1.1894941062347206E+01    1.7137542913755393E+00    2.4045982682032188E+00
Au    1.4857396555973628E+01    1.7031683714311776E+00    2.4081502863653754E+00
Au    1.4772167858171918E+00    4.2696733461215004E+00    2.4050961839479443E+00
Au    4.4435578397218025E+00    4.2789836537765309E+00    2.4245766806550257E+00
Au    7.4044388138639823E+00    4.2880476822548896E+00    2.4172936693626905E+00
Au    1.0407439576869336E+01    4.2880476834155763E+00    2.4172936845477744E+00
Au    1.3368320592593495E+01    4.2789836354948791E+00    2.4245766232016304E+00
Au    1.6334661635292004E+01    4.2696733482944129E+00    2.4050961860626492E+00
Au    5.9371736226729623E-09    6.8441270686778930E+00    2.4063508955297004E+00
Au    2.9590202078945418E+00    6.8427407642213671E+00    2.4050814092114892E+00
Au    5.9274162356410844E+00    6.8426379918153053E+00    2.4151494143978294E+00
Au    8.9059391998358475E+00    6.8562403443945508E+00    2.4795242869339895E+00
Au    1.1884462158999005E+01    6.8426380033612482E+00    2.4151494291960329E+00
Au    1.4852858199573404E+01    6.8427407643506273E+00    2.4050814064176316E+00
Au    1.4886992769006790E+00    9.4156525996025771E+00    2.4107300737353072E+00
Au    4.4594578478148534E+00    9.4179834629422245E+00    2.4117074493468635E+00
Au    7.4265446515197171E+00    9.4415285941462717E+00    2.4144569874036992E+00
Au    1.0385333754678884E+01    9.4415285945965461E+00    2.4144569806466087E+00
Au    1.3352420554957581E+01    9.4179834713265613E+00    2.4117074587931615E+00
Au    1.6323179122296775E+01    9.4156526002759104E+00    2.4107300702248051E+00
Au    1.2160151641510988E-09    1.1981665712736548E+01    2.4134203041366162E+00
Au    2.9699906562300984E+00    1.1988577761642462E+01    2.4104776171278188E+00
Au    5.9352288658299903E+00    1.2011466805648642E+01    2.4024558683034360E+00
Au    8.9059392009316394E+00    1.2010045351799748E+01    2.4241652859266765E+00
Au    1.1876649537194732E+01    1.2011466807225455E+01    2.4024558726694254E+00
Au    1.4841887745150027E+01    1.1988577765797432E+01    2.4104776124832878E+00
Au    1.4792247956206541E+00    1.4553563991589742E+01    2.4116112220438599E+00
Au    4.4418910999126764E+00    1.4567712538768497E+01    2.4075529960631510E+00
Au    7.4190398535694220E+00    1.4587766865861209E+01    2.4034327042891181E+00
Au    1.0392838543737463E+01    1.4587766865164909E+01    2.4034327048395294E+00
Au    1.3369987301461602E+01    1.4567712539264020E+01    2.4075529931946615E+00
Au    1.6332653609914633E+01    1.4553563986414551E+01    2.4116112179529918E+00
Au    5.8745984886192189E-09   -1.8681846827046787E-02    4.8704497473230663E+00
Au    2.9353181850175019E+00   -2.0124279876066752E-02    4.8728088922041755E+00
Au    5.8962405573924919E+00   -1.9432891943727808E-02    4.8674202322251521E+00
Au    8.9059392004641822E+00   -1.0859378811038291E-03    4.8536228788894800E+00
Au    1.1915637841976212E+01   -1.9432892252213178E-02    4.8674202283750949E+00
Au    1.4876560223323992E+01   -2.0124288660515122E-02    4.8728088959861706E+00
Au    1.4601532449199057E+00    2.5460396858568015E+00    4.8756265554290454E+00
Au    4.3877243604869776E+00    2.5171636032990028E+00    4.8661809522306543E+00
Au    7.3536836954255778E+00    2.4779071296049824E+00    4.8500471114889683E+00
Au    1.0458194707813014E+01    2.4779071338052545E+00    4.8500471086119115E+00
Au    1.3424154056559681E+01    2.5171635841249378E+00    4.8661809498744653E+00
Au    1.6351725168728336E+01    2.5460396810714658E+00    4.8756265452998244E+00
Au    1.7990806037356581E-08    5.1261293570390611E+00    4.8696788906807491E+00
Au    2.9004074157422366E+00    5.1161390256545030E+00    4.8659342661240492E+00
Au    5.8051499214504849E+00    5.0627325389689570E+00    4.8987493126430408E+00
Au    8.9059391968658836E+00    4.9165881357691532E+00    4.7915020387856240E+00
Au    1.2006728544619014E+01    5.0627324906018059E+00    4.8987491679346968E+00
Au    1.4911471014739801E+01    5.1161390252406109E+00    4.8659342564954722E+00
Au    1.4535953865929105E+00    7.7089913670437236E+00    4.8688740206565644E+00
Au    4.3426189882035366E+00    7.7073164650115444E+00    4.8524124079448381E+00
Au    7.2327070321059237E+00    7.8215085766143515E+00    4.7833922480569022E+00
Au    1.0579171366837373E+01    7.8215086033397512E+00    4.7833922453781375E+00
Au    1.3469259425953444E+01    7.7073164732557879E+00    4.8524124098419890E+00
Au    1.6358283027620608E+01    7.7089913661260256E+00    4.8688740057946456E+00
Au    4.3882335605026164E-09    1.0275449407019334E+01    4.8615434044762322E+00
Au    2.9399154394806049E+00    1.0291921130641532E+01    4.8581418533002934E+00
Au    5.8730752453473318E+00    1.0376620881505136E+01    4.8463023757091008E+00
Au    8.9059391927028724E+00    1.0424540023427451E+01    4.8942994503234658E+00
Au    1.1938803175823063E+01    1.0376620901274688E+01    4.8463023869689286E+00
Au    1.4871962973961859E+01    1.0291921139104581E+01    4.8581418617927454E+00
Au    1.4723674656393786E+00    1.2844068926677734E+01    4.8638565117772039E+00
Au    4.4158432400250307E+00    1.2876319805719836E+01    4.8691887250099253E+00
Au    7.3966265196292085E+00    1.2913896673573001E+01    4.8525499898626423E+00
Au    1.0415251881939408E+01    1.2913896675194460E+01    4.8525499885823598E+00
Au    1.3396035171830198E+01    1.2876319820346884E+01    4.8691887290008822E+00
Au    1.6339510937136900E+01    1.2844068927806623E+01    4.8638565139808074E+00
Au    7.4187961766088462E+00    5.9994734848541871E+00    6.9287093668685014E+00
Au    1.0393082404797841E+01    5.9994735236130712E+00    6.9287092768937733E+00
Au    8.9059392793915286E+00    8.5494454131042232E+00    6.9322493674698649E+00
Au    8.9059394529321221E+00    6.8031313508379982E+00    9.0922205650209236E+00
Au    8.9059304620955331E+00    6.2673363211488224E+00    1.1660347574492381E+01
Au    8.9059593075482333E+00    7.6282942450094415E+00    1.3907345255132867E+01
Au    8.9059165450468765E+00    7.1917552162674721E+00    1.6488212889612647E+01
Au    8.9059534997054239E+00    5.9913159275662737E+00    1.8817136626888939E+01
Au    8.9059352182916118E+00    7.2899053921070438E+00    2.1077118235001187E+01
Au    8.9059391809582511E+00    6.8715717433028480E+00    2.3676042835314782E+01
Au    8.9059391969752255E+00    5.1561265898839146E+00    2.5870258673028115E+01
Au    7.4352909714664728E+00    7.7068391317143137E+00    2.5853902681765092E+01
Au    1.0376587482767533E+01    7.7068391299241892E+00    2.5853902780039117E+01
Au   -5.5657151386867397E-10    1.7111849431408737E+00    2.7996748096648478E+01
Au    2.9440154371541651E+00    1.7103554991492489E+00    2.7994868183461030E+01
Au    5.8921918875229311E+00    1.6716788553599513E+00    2.8004341756953590E+01
Au    8.9059391999244077E+00    1.6665137365507672E+00    2.7992289129097191E+01
Au    1.1919686509237774E+01    1.6716788561896820E+00    2.8004341761764440E+01
Au    1.4867862971374549E+01    1.7103554833695958E+00    2.7994868183973523E+01
Au    1.4708441284925644E+00    4.2796538041477756E+00    2.7997210526287663E+01
Au    4.4050154332635323E+00    4.2655517789087112E+00    2.8010919907726560E+01
Au    7.3599470930267854E+00    4.1772445008586141E+00    2.7972794926543880E+01
Au    1.0451931278743748E+01    4.1772445184638798E+00    2.7972794883961349E+01
Au    1.3406862977192953E+01    4.2655517518534278E+00    2.8010919899440928E+01
Au    1.6341034274823279E+01    4.2796538016900163E+00    2.7997210543166847E+01
Au    5.0797870200688333E-09    6.8583828894184711E+00    2.7993047852808260E+01
Au    2.9130147291878510E+00    6.8575055529848639E+00    2.7998334647362160E+01
Au    5.8152860953900412E+00    6.8735181475699738E+00    2.7967660271531354E+01
Au    8.9059391849012481E+00    6.8740395877812261E+00    2.8176402897899294E+01
Au    1.1996592329817565E+01    6.8735180991786011E+00    2.7967660298273451E+01
Au    1.4898863683178016E+01    6.8575055541154635E+00    2.7998334651704205E+01
Au    1.4657029642604851E+00    9.4379591630660382E+00    2.7989897504678673E+01
Au    4.3966518175019376E+00    9.4621845192354588E+00    2.7976930035686465E+01
Au    7.3417005313884474E+00    9.5373318708713430E+00    2.7961282224728297E+01
Au    1.0470177860375951E+01    9.5373319370371217E+00    2.7961282280042276E+01
Au    1.3415226571460863E+01    9.4621845110725360E+00    2.7976930051936979E+01
Au    1.6346175438773173E+01    9.4379591684731601E+00    2.7989897514327865E+01
Au    3.2990693814054584E-09    1.2002675250834212E+01    2.7991179984619205E+01
Au    2.9462376071397793E+00    1.2012810454963661E+01    2.7992589000858050E+01
Au    5.9020375614975231E+00    1.2055255002349105E+01    2.8000593281562843E+01
Au    8.9059391842100730E+00    1.2046676210223440E+01    2.8013248441052237E+01
Au    1.1909840846362730E+01    1.2055255016046543E+01    2.8000593281838427E+01
Au    1.4865640795386989E+01    1.2012810451321197E+01    2.7992589003090327E+01
Au    1.4738876234150968E+00    1.4568187448525563E+01    2.7996145651748581E+01
Au    4.4241345630008038E+00    1.4575697491887048E+01    2.7994650297192088E+01
Au    7.4099507592986891E+00    1.4575693107840074E+01    2.8002017990158837E+01
Au    1.0401927641382420E+01    1.4575693104489583E+01    2.8002017995486213E+01
Au    1.3387743839521185E+01    1.4575697493182515E+01    2.7994650297889802E+01
Au    1.6337990775208141E+01    1.4568187453814588E+01    2.7996145644405573E+01
Au    4.0672649115286708E-10    5.2823376486487474E-03    3.0445505960615424E+01
Au    2.9639086847984983E+00    7.5110071261746828E-03    3.0446402692519946E+01
Au    5.9340291990548515E+00   -7.3338846341079742E-03    3.0452754429130493E+01
Au    8.9059392013833563E+00    3.3832089380010952E-03    3.0447548105922724E+01
Au    1.1877849200648413E+01   -7.3338885182402331E-03    3.0452754432134423E+01
Au    1.4847969713269443E+01    7.5110067472539902E-03    3.0446402695348006E+01
Au    1.4843775778148591E+00    2.5791543642963117E+00    3.0446545518073485E+01
Au    4.4504263013543603E+00    2.5740076398481819E+00    3.0452147895483353E+01
Au    7.4140129796473788E+00    2.5695145331628115E+00    3.0440881840690658E+01
Au    1.0397865422111288E+01    2.5695145452848478E+00    3.0440881819692454E+01
Au    1.3361452097231517E+01    2.5740076361141417E+00    3.0452147899431935E+01
Au    1.6327500823664924E+01    2.5791543593904618E+00    3.0446545520124541E+01
Au    1.2413377591703994E-09    5.1522866519655937E+00    3.0447783001345528E+01
Au    2.9688568391934589E+00    5.1495358649110257E+00    3.0451430847002424E+01
Au    5.9417618677060933E+00    5.1474463430338000E+00    3.0409157591080838E+01
Au    8.9059391974706266E+00    5.1221987982823016E+00    3.0445302309464918E+01
Au    1.1870116527299752E+01    5.1474463259742853E+00    3.0409157576905407E+01
Au    1.4843021556040297E+01    5.1495358668090754E+00    3.0451430856982732E+01
Au    1.4803260729256309E+00    7.7217645312389758E+00    3.0450126838581035E+01
Au    4.4476823176817213E+00    7.7132157644776109E+00    3.0440097725962197E+01
Au    7.4037241595747645E+00    7.7237322609506940E+00    3.0451588659929257E+01
Au    1.0408154241590218E+01    7.7237322606459786E+00    3.0451588659963726E+01
Au    1.3364196074516968E+01    7.7132157593787722E+00    3.0440097718182095E+01
Au    1.6331552332949617E+01    7.7217645299476230E+00    3.0450126837482092E+01
Au    4.3415152702142033E-09    1.0291618492848659E+01    3.0447519221023686E+01
Au    2.9732047891232125E+00    1.0281575887190067E+01    3.0442029064658158E+01
Au    5.9348347354781987E+00    1.0291184493409180E+01    3.0438875797114374E+01
Au    8.9059391853737075E+00    1.0274165572677850E+01    3.0403974466239660E+01
Au    1.1877043668950156E+01    1.0291184494811667E+01    3.0438875803767719E+01
Au    1.4838673616019223E+01    1.0281575890040754E+01    3.0442029074513869E+01
Au    1.4792695643441491E+00    1.2856761915401036E+01    3.0447428399631832E+01
Au    4.4410344010437619E+00    1.2857223968363211E+01    3.0449524139936074E+01
Au    7.4193239552713637E+00    1.2848531546395003E+01    3.0452542043947989E+01
Au    1.0392554440821169E+01    1.2848531540894413E+01    3.0452542043486780E+01
Au    1.3370843999275731E+01    1.2857223968643968E+01    3.0449524144897374E+01
Au    1.6332608836957910E+01    1.2856761915263606E+01    3.0447428395648277E+01
     &END COORD
     &KIND Au
       BASIS_SET TZVP-MOLOPT-SR-GTH-q11
       ELEMENT Au
       POTENTIAL GTH-PBE-q11
       &POTENTIAL
1 0 10
0.5900000000000000E+00 1  0.1051717881000000E+02
3
0.5438473300000000E+00 2  0.5786811030000000E+01 -0.2250679660000000E+01
0.2905614950000000E+01
0.6091729800000000E+00 2  0.4284048730000000E+01 -0.4071285200000000E+01
0.4817209620000000E+01
0.4373092200000000E+00 2 -0.7403281240000000E+01  0.3010193070000000E+01
-0.3413238110000000E+01
       &END POTENTIAL
     &END KIND
     &TOPOLOGY
       COORD_FILE_NAME junction_65.xyz
       COORD_FILE_FORMAT  XYZ
       NUMBER_OF_ATOMS  193
       MULTIPLE_UNIT_CELL  1 1 1
     &END TOPOLOGY
   &END SUBSYS
   &PRINT
     &TOTAL_NUMBERS  ON
     &END TOTAL_NUMBERS
   &END PRINT
 &END FORCE_EVAL
