 # Version information for this restart file 
 # current date 2022-04-27 05:44:37.780
 # current working dir /rds/general/user/jj1921/home/junction/ortho/cell_65
 # Program compiled at                              Thu 12 Jul 13:52:12 BST 2018
 # Program compiled on                                      build-2.hpc.ic.ac.uk
 # Program compiled for                                       Linux-x86-64-intel
 # Source code revision number                                         svn:18464
 &GLOBAL
   PRINT_LEVEL  MEDIUM
   PROJECT_NAME Au_junction
   RUN_TYPE  CELL_OPT
 &END GLOBAL
 &MOTION
   &CELL_OPT
     OPTIMIZER  BFGS
     STEP_START_VAL  23
     TYPE  DIRECT_CELL_OPT
     KEEP_ANGLES  T
     KEEP_SYMMETRY  T
     CONSTRAINT  XY
   &END CELL_OPT
   &CONSTRAINT
     &FIXED_ATOMS
       COMPONENTS_TO_FIX  XYZ
       LIST  1..36
     &END FIXED_ATOMS
   &END CONSTRAINT
   &PRINT
     &TRAJECTORY  SILENT
       &EACH
         CELL_OPT  1
       &END EACH
     &END TRAJECTORY
   &END PRINT
 &END MOTION
 &FORCE_EVAL
   METHOD  QS
   STRESS_TENSOR  ANALYTICAL
   &DFT
     BASIS_SET_FILE_NAME /rds/general/user/jj1921/home/BASIS_COM_MOLOPT_GTH
     POTENTIAL_FILE_NAME /rds/general/user/jj1921/home/GTH_POTENTIALS
     &SCF
       MAX_SCF  500
       EPS_SCF     9.9999999999999995E-08
       CHOLESKY  INVERSE
       SCF_GUESS  ATOMIC
       ADDED_MOS  20
       &DIAGONALIZATION  T
         ALGORITHM  STANDARD
       &END DIAGONALIZATION
       &SMEAR  T
         METHOD  FERMI_DIRAC
         ELECTRONIC_TEMPERATURE     3.0000000000000000E+02
       &END SMEAR
       &MIXING  T
         METHOD  BROYDEN_MIXING
         ALPHA     4.0000000000000002E-01
         BETA     5.0000000000000000E-01
         NBUFFER  8
       &END MIXING
     &END SCF
     &QS
       EPS_DEFAULT     1.0000000000000000E-14
       METHOD  GPW
     &END QS
     &MGRID
       NGRIDS  4
       CUTOFF     5.0000000000000000E+02
       REL_CUTOFF     4.0000000000000000E+01
     &END MGRID
     &XC
       DENSITY_CUTOFF     1.0000000000000000E-10
       GRADIENT_CUTOFF     1.0000000000000000E-10
       TAU_CUTOFF     1.0000000000000000E-10
       &XC_FUNCTIONAL  NO_SHORTCUT
         &PBE  T
         &END PBE
       &END XC_FUNCTIONAL
     &END XC
     &KPOINTS
       SCHEME MONKHORST-PACK 4 4 1
       FULL_GRID  T
     &END KPOINTS
   &END DFT
   &SUBSYS
     &CELL
       A     1.7811878396732897E+01    0.0000000000000000E+00    0.0000000000000000E+00
       B     0.0000000000000000E+00    1.5425539180689926E+01    0.0000000000000000E+00
       C     0.0000000000000000E+00    0.0000000000000000E+00    3.4005049797397774E+01
       PERIODIC  XYZ
       MULTIPLE_UNIT_CELL  1 1 1
       SYMMETRY  ORTHORHOMBIC
     &END CELL
     &COORD
Au    1.4843231999999995E+00    8.5697440000000003E-01    0.0000000000000000E+00
Au    4.4529695999999985E+00    8.5697440000000003E-01    0.0000000000000000E+00
Au    7.4216159999999975E+00    8.5697440000000003E-01    0.0000000000000000E+00
Au    1.0390262399999997E+01    8.5697440000000003E-01    0.0000000000000000E+00
Au    1.3358908799999996E+01    8.5697440000000003E-01    0.0000000000000000E+00
Au    1.6327555199999995E+01    8.5697440000000003E-01    0.0000000000000000E+00
Au    0.0000000000000000E+00    3.4278976000000001E+00    0.0000000000000000E+00
Au    2.9686463999999990E+00    3.4278976000000001E+00    0.0000000000000000E+00
Au    5.9372927999999980E+00    3.4278976000000001E+00    0.0000000000000000E+00
Au    8.9059391999999971E+00    3.4278976000000001E+00    0.0000000000000000E+00
Au    1.1874585599999996E+01    3.4278976000000001E+00    0.0000000000000000E+00
Au    1.4843231999999995E+01    3.4278976000000001E+00    0.0000000000000000E+00
Au    1.4843231999999995E+00    5.9988207899999999E+00    0.0000000000000000E+00
Au    4.4529695999999985E+00    5.9988207899999999E+00    0.0000000000000000E+00
Au    7.4216159999999975E+00    5.9988207899999999E+00    0.0000000000000000E+00
Au    1.0390262399999997E+01    5.9988207899999999E+00    0.0000000000000000E+00
Au    1.3358908799999996E+01    5.9988207899999999E+00    0.0000000000000000E+00
Au    1.6327555199999995E+01    5.9988207899999999E+00    0.0000000000000000E+00
Au    0.0000000000000000E+00    8.5697439900000010E+00    0.0000000000000000E+00
Au    2.9686463999999990E+00    8.5697439900000010E+00    0.0000000000000000E+00
Au    5.9372927999999980E+00    8.5697439900000010E+00    0.0000000000000000E+00
Au    8.9059391999999971E+00    8.5697439900000010E+00    0.0000000000000000E+00
Au    1.1874585599999996E+01    8.5697439900000010E+00    0.0000000000000000E+00
Au    1.4843231999999995E+01    8.5697439900000010E+00    0.0000000000000000E+00
Au    1.4843231999999995E+00    1.1140667190000000E+01    0.0000000000000000E+00
Au    4.4529695999999985E+00    1.1140667190000000E+01    0.0000000000000000E+00
Au    7.4216159999999975E+00    1.1140667190000000E+01    0.0000000000000000E+00
Au    1.0390262399999997E+01    1.1140667190000000E+01    0.0000000000000000E+00
Au    1.3358908799999996E+01    1.1140667190000000E+01    0.0000000000000000E+00
Au    1.6327555199999995E+01    1.1140667190000000E+01    0.0000000000000000E+00
Au    0.0000000000000000E+00    1.3711590380000002E+01    0.0000000000000000E+00
Au    2.9686463999999990E+00    1.3711590380000002E+01    0.0000000000000000E+00
Au    5.9372927999999980E+00    1.3711590380000002E+01    0.0000000000000000E+00
Au    8.9059391999999971E+00    1.3711590380000002E+01    0.0000000000000000E+00
Au    1.1874585599999996E+01    1.3711590380000002E+01    0.0000000000000000E+00
Au    1.4843231999999995E+01    1.3711590380000002E+01    0.0000000000000000E+00
Au    1.2381133809229949E-09    1.7174273974587635E+00    2.4056642421023913E+00
Au    2.9690754968038457E+00    1.7187784483748954E+00    2.4021499945443159E+00
Au    5.9338532215550783E+00    1.7159235461546145E+00    2.4034773085916372E+00
Au    8.9059391995835231E+00    1.7269726126700964E+00    2.4132502579452431E+00
Au    1.1878025177736125E+01    1.7159235462892943E+00    2.4034773083096477E+00
Au    1.4842802902458537E+01    1.7187784486420181E+00    2.4021499945894513E+00
Au    1.4879783847082788E+00    4.2826902779345017E+00    2.4003664369750681E+00
Au    4.4646797599797754E+00    4.2918767185331719E+00    2.4302807348449713E+00
Au    7.4167731584648848E+00    4.2894826452926678E+00    2.4305374210168287E+00
Au    1.0395105240398044E+01    4.2894826454388335E+00    2.4305374210106367E+00
Au    1.3347198639970154E+01    4.2918767183773081E+00    2.4302807351554105E+00
Au    1.6323900014533997E+01    4.2826902781223941E+00    2.4003664378830432E+00
Au    1.5969848187335029E-09    6.8520652880140673E+00    2.4022315161805077E+00
Au    2.9698731208570730E+00    6.8513542766502296E+00    2.4038891636361792E+00
Au    5.9385634191444439E+00    6.8480494999745645E+00    2.4305750083213447E+00
Au    8.9059391996100015E+00    6.8545898247668111E+00    2.4802489791085716E+00
Au    1.1873314980907759E+01    6.8480494997651471E+00    2.4305750083194391E+00
Au    1.4842005278479547E+01    6.8513542772350791E+00    2.4038891642659403E+00
Au    1.4894790038152854E+00    9.4240727849591650E+00    2.4066888753717972E+00
Au    4.4651137388588609E+00    9.4187403359329629E+00    2.4144841124710852E+00
Au    7.4279616573622445E+00    9.4284822785194518E+00    2.4300535400932608E+00
Au    1.0383916742212012E+01    9.4284822784562525E+00    2.4300535399043515E+00
Au    1.3346764661137694E+01    9.4187403361437010E+00    2.4144841125520724E+00
Au    1.6322399395735133E+01    9.4240727851929247E+00    2.4066888763450218E+00
Au    1.8361230225101005E-09    1.1994470352227705E+01    2.4084794711624253E+00
Au    2.9726533584817214E+00    1.1996188469758824E+01    2.4056545243530940E+00
Au    5.9405599477322495E+00    1.1998268009112444E+01    2.4050483165297365E+00
Au    8.9059392002259496E+00    1.1986341595950771E+01    2.4308323919580044E+00
Au    1.1871318452549520E+01    1.1998268009064523E+01    2.4050483167765537E+00
Au    1.4839225041660056E+01    1.1996188470079069E+01    2.4056545241249494E+00
Au    1.4845136053167032E+00    1.4570452580338353E+01    2.4061919206270819E+00
Au    4.4534792966473677E+00    1.4570883982996845E+01    2.4023289450254297E+00
Au    7.4257896847870306E+00    1.4570522640111312E+01    2.4009483539361796E+00
Au    1.0386088715426929E+01    1.4570522640507265E+01    2.4009483537915268E+00
Au    1.3358399103568482E+01    1.4570883983214829E+01    2.4023289450907028E+00
Au    1.6327364794460188E+01    1.4570452580323368E+01    2.4061919218331660E+00
Au    1.9717678261124337E-09   -3.9959385701652242E-03    4.8557494804125314E+00
Au    2.9496573965627917E+00   -9.6591562004611688E-03    4.8561963275827420E+00
Au    5.9113694933380652E+00   -1.6259545899755111E-02    4.8605705530546350E+00
Au    8.9059391999338811E+00   -9.1059838091725916E-03    4.8555505725006567E+00
Au    1.1900508906764127E+01   -1.6259546964914138E-02    4.8605705532788201E+00
Au    1.4862221003397805E+01   -9.6591550099868126E-03    4.8561963279691804E+00
Au    1.4670092485549788E+00    2.5562809580616941E+00    4.8601976702475085E+00
Au    4.4045374205226615E+00    2.5194491006706632E+00    4.8655681171398051E+00
Au    7.3752795600656205E+00    2.4857002460700435E+00    4.8623568416328222E+00
Au    1.0436598841120706E+01    2.4857002460810045E+00    4.8623568415838703E+00
Au    1.3407340978648492E+01    2.5194491013531017E+00    4.8655681176471148E+00
Au    1.6344869151306998E+01    2.5562809569830627E+00    4.8601976704658290E+00
Au    1.8517405528521949E-09    5.1329311746946029E+00    4.8532317507610170E+00
Au    2.9039273505433401E+00    5.1268523950750637E+00    4.8644167140431307E+00
Au    5.8057989156340986E+00    5.0635488700085380E+00    4.9329044625930836E+00
Au    8.9059391994045853E+00    4.9445884302166387E+00    4.8139968308938812E+00
Au    1.2006079482348666E+01    5.0635488701436726E+00    4.9329044620308107E+00
Au    1.4907951048841532E+01    5.1268523953939145E+00    4.8644167136496730E+00
Au    1.4569406753846226E+00    7.7166568669135316E+00    4.8595130141084804E+00
Au    4.3565705340131640E+00    7.7175822253382877E+00    4.8645982421459166E+00
Au    7.2503505292336738E+00    7.8090571293093909E+00    4.8137867259668488E+00
Au    1.0561527869359143E+01    7.8090571282472565E+00    4.8137867248488639E+00
Au    1.3455307865472085E+01    7.7175822274336436E+00    4.8645982432394366E+00
Au    1.6354937724452338E+01    7.7166568652686109E+00    4.8595130137684741E+00
Au    1.5893042589015127E-09    1.0287881125991097E+01    4.8529805796382712E+00
Au    2.9416897294630386E+00    1.0299898495495860E+01    4.8537186031848085E+00
Au    5.8791625819140672E+00    1.0361283035150539E+01    4.8633899353497778E+00
Au    8.9059392009277651E+00    1.0430712056891421E+01    4.9278825223275087E+00
Au    1.1932715818558533E+01    1.0361283034725082E+01    4.8633899360770991E+00
Au    1.4870188669980980E+01    1.0299898496759939E+01    4.8537186035470476E+00
Au    1.4774507528120095E+00    1.2858832431896603E+01    4.8529933043060716E+00
Au    4.4249845987778427E+00    1.2876358099433771E+01    4.8601333736589423E+00
Au    7.3955931489781168E+00    1.2909651647684777E+01    4.8627569691501398E+00
Au    1.0416285250829679E+01    1.2909651648368246E+01    4.8627569690636125E+00
Au    1.3386893802047695E+01    1.2876358099881447E+01    4.8601333738400951E+00
Au    1.6334427647791625E+01    1.2858832430668764E+01    4.8529933046792717E+00
Au    7.4213957791363478E+00    5.9937774072699161E+00    6.9692775239032345E+00
Au    1.0390482621347726E+01    5.9937774072068706E+00    6.9692775238063431E+00
Au    8.9059392001923143E+00    8.5718513414023469E+00    6.9664969565730157E+00
Au    8.9059392012083585E+00    6.8570122211246085E+00    9.0997482577712905E+00
Au    8.9059391986931651E+00    6.8534320043676535E+00    1.1726054998596362E+01
Au    8.9059392018698098E+00    6.8667672463186467E+00    1.4356314377499118E+01
Au    8.9059392003343749E+00    6.8562923374371296E+00    1.6990561638082923E+01
Au    8.9059392004713622E+00    6.8443522947827518E+00    1.9623444392694925E+01
Au    8.9059392005422744E+00    6.8574398099322700E+00    2.2247643469802671E+01
Au    8.9059392001799296E+00    6.8551544283003398E+00    2.4867257060144173E+01
Au    8.9059391988618763E+00    5.1504515023691813E+00    2.7013723164188338E+01
Au    7.4301993921350924E+00    7.7129826330206575E+00    2.7012167286329149E+01
Au    1.0381679009348453E+01    7.7129826323827748E+00    2.7012167286380365E+01
Au    2.0982905849100112E-09    1.7067792785396467E+00    2.9151778827627197E+01
Au    2.9478090756089363E+00    1.7043278713772447E+00    2.9147409546850653E+01
Au    5.8929710939260209E+00    1.6630185603212788E+00    2.9147099028124181E+01
Au    8.9059392025920676E+00    1.6619678306756647E+00    2.9122666679801952E+01
Au    1.1918907306537870E+01    1.6630185642614048E+00    2.9147099028353121E+01
Au    1.4864069324751794E+01    1.7043278685916619E+00    2.9147409545903169E+01
Au    1.4708828106123004E+00    4.2743179908231612E+00    2.9150367577785790E+01
Au    4.4028559710289628E+00    4.2563718785090634E+00    2.9152446335244438E+01
Au    7.3569275811636734E+00    4.1639555380829343E+00    2.9106365842164436E+01
Au    1.0454950812372662E+01    4.1639555394017718E+00    2.9106365843938132E+01
Au    1.3409022429816007E+01    4.2563718757383251E+00    2.9152446335594032E+01
Au    1.6340995588811509E+01    4.2743179945281051E+00    2.9150367577529014E+01
Au    1.5817836637008502E-09    6.8569189163748661E+00    2.9149591183138863E+01
Au    2.9041151109629006E+00    6.8528795971040068E+00    2.9146054021832889E+01
Au    5.7991005370605633E+00    6.8656825257198895E+00    2.9107166335487012E+01
Au    8.9059392000392759E+00    6.8604406604408839E+00    2.9313576881340687E+01
Au    1.2012777862374456E+01    6.8656825255553384E+00    2.9107166336859848E+01
Au    1.4907763288701382E+01    6.8528795965146934E+00    2.9146054021375349E+01
Au    1.4663183051307087E+00    9.4378417008186126E+00    2.9147075546281172E+01
Au    4.3998802236049457E+00    9.4584926863529528E+00    2.9119552455835045E+01
Au    7.3454209087725975E+00    9.5467955261898396E+00    2.9106024371006249E+01
Au    1.0466457497957732E+01    9.5467955276172702E+00    2.9106024370022020E+01
Au    1.3411998176017157E+01    9.4584926827778872E+00    2.9119552455451576E+01
Au    1.6345560094578708E+01    9.4378417049385934E+00    2.9147075546183434E+01
Au    1.5468476798962202E-09    1.2003500296853273E+01    2.9148455430257759E+01
Au    2.9495881921780582E+00    1.2009395944574207E+01    2.9147434369198923E+01
Au    5.9042582635061134E+00    1.2057374896142504E+01    2.9148085796807390E+01
Au    8.9059391983710192E+00    1.2052710000783877E+01    2.9157085704778495E+01
Au    1.1907620137243489E+01    1.2057374899320946E+01    2.9148085796461181E+01
Au    1.4862290207551863E+01    1.2009395941311341E+01    2.9147434368834695E+01
Au    1.4776366349599552E+00    1.4565645075096560E+01    2.9151891466075053E+01
Au    4.4301672954584239E+00    1.4570190296402417E+01    2.9148653535986554E+01
Au    7.4146538638736157E+00    1.4571694214180358E+01    2.9146759363207341E+01
Au    1.0397224536087384E+01    1.4571694210976698E+01    2.9146759362931885E+01
Au    1.3381711104356027E+01    1.4570190296037680E+01    2.9148653535721671E+01
Au    1.6334241764792491E+01    1.4565645078409986E+01    2.9151891465931932E+01
Au    1.7705014184818144E-09   -1.2794305425361718E-03    3.1598170323350946E+01
Au    2.9697407868231753E+00    8.1412451818895556E-04    3.1598382006157077E+01
Au    5.9403215164477627E+00   -3.8630610997026568E-03    3.1603296152864619E+01
Au    8.9059392003457258E+00    1.4782007271557292E-02    3.1592074987249418E+01
Au    1.1871556883791074E+01   -3.8630612309429237E-03    3.1603296151957153E+01
Au    1.4842137612892403E+01    8.1412477375692285E-04    3.1598382006393198E+01
Au    1.4857558221527558E+00    2.5728635554020904E+00    3.1597628215956650E+01
Au    4.4570050487413013E+00    2.5729898817986099E+00    3.1601596959122908E+01
Au    7.4146597669467598E+00    2.5740961025598379E+00    3.1587197809469188E+01
Au    1.0397218633416715E+01    2.5740961026077938E+00    3.1587197810256274E+01
Au    1.3354873351606344E+01    2.5729898818489847E+00    3.1601596959643761E+01
Au    1.6326122577690317E+01    2.5728635554862791E+00    3.1597628214644981E+01
Au    2.0100901133757612E-09    5.1443800613179462E+00    3.1598046208486480E+01
Au    2.9736358537780272E+00    5.1440727704917046E+00    3.1601775167390102E+01
Au    5.9473081352013457E+00    5.1485088875596059E+00    3.1548809849501716E+01
Au    8.9059391998255961E+00    5.1286523370599726E+00    3.1586641200857699E+01
Au    1.1864570263843051E+01    5.1485088870594371E+00    3.1548809848431521E+01
Au    1.4838242545433481E+01    5.1440727708509941E+00    3.1601775168420065E+01
Au    1.4839460434824925E+00    7.7167820462566414E+00    3.1603374178029512E+01
Au    4.4527694765765213E+00    7.7071424118978129E+00    3.1587608914296041E+01
Au    7.4097261016187925E+00    7.7204111904559918E+00    3.1587953066107488E+01
Au    1.0402152297875574E+01    7.7204111910024693E+00    3.1587953066246968E+01
Au    1.3359108922748472E+01    7.7071424115933471E+00    3.1587608915085433E+01
Au    1.6327932356071042E+01    7.7167820458744742E+00    3.1603374177073636E+01
Au    1.6867208800705365E-09    1.0285963625777590E+01    3.1600523529104070E+01
Au    2.9824321082130543E+00    1.0273774012862441E+01    3.1593326683848645E+01
Au    5.9421834887509695E+00    1.0288105661974903E+01    3.1587169110982181E+01
Au    8.9059392002112503E+00    1.0271846067197659E+01    3.1551488703105171E+01
Au    1.1869694911139520E+01    1.0288105662440129E+01    3.1587169110968951E+01
Au    1.4829446290843729E+01    1.0273774012677194E+01    3.1593326683963397E+01
Au    1.4852732628105116E+00    1.2849923444819051E+01    3.1600103100903549E+01
Au    4.4494566868597403E+00    1.2852519176766901E+01    3.1603000092627873E+01
Au    7.4239276485292551E+00    1.2852248499070733E+01    3.1603977244371507E+01
Au    1.0387950750710608E+01    1.2852248499164356E+01    3.1603977244686288E+01
Au    1.3362421712630409E+01    1.2852519176785925E+01    3.1603000092831845E+01
Au    1.6326605136009384E+01    1.2849923444527404E+01    3.1600103099754410E+01
     &END COORD
     &KIND Au
       BASIS_SET TZVP-MOLOPT-SR-GTH-q11
       ELEMENT Au
       POTENTIAL GTH-PBE-q11
       &POTENTIAL
 1 0 10
  0.5900000000000000E+00 1  0.1051717881000000E+02
 3
  0.5438473300000000E+00 2  0.5786811030000000E+01 -0.2250679660000000E+01
  0.2905614950000000E+01
  0.6091729800000000E+00 2  0.4284048730000000E+01 -0.4071285200000000E+01
  0.4817209620000000E+01
  0.4373092200000000E+00 2 -0.7403281240000000E+01  0.3010193070000000E+01
 -0.3413238110000000E+01
         # Potential name:  GTH-PBE-Q11  for symbol:  AU
         # Potential read from the potential filename: /rds/general/user/jj1921/home/GTH_POTENTIALS
       &END POTENTIAL
     &END KIND
     &TOPOLOGY
       COORD_FILE_NAME junction_65.xyz
       COORD_FILE_FORMAT  XYZ
       NUMBER_OF_ATOMS  193
       MULTIPLE_UNIT_CELL  1 1 1
     &END TOPOLOGY
   &END SUBSYS
   &PRINT
     &TOTAL_NUMBERS  ON
     &END TOTAL_NUMBERS
   &END PRINT
 &END FORCE_EVAL
