 # Version information for this restart file 
 # current date 2022-05-02 17:25:34.387
 # current working dir /rds/general/user/jj1921/home/junction/ortho/cell_65
 # Program compiled at                              Thu 12 Jul 13:52:12 BST 2018
 # Program compiled on                                      build-2.hpc.ic.ac.uk
 # Program compiled for                                       Linux-x86-64-intel
 # Source code revision number                                         svn:18464
 &GLOBAL
   PRINT_LEVEL  MEDIUM
   PROJECT_NAME Au_junction
   RUN_TYPE  CELL_OPT
 &END GLOBAL
 &MOTION
   &CELL_OPT
     OPTIMIZER  BFGS
     STEP_START_VAL  86
     TYPE  DIRECT_CELL_OPT
     KEEP_ANGLES  T
     KEEP_SYMMETRY  T
     CONSTRAINT  XY
   &END CELL_OPT
   &CONSTRAINT
     &FIXED_ATOMS
       COMPONENTS_TO_FIX  XYZ
       LIST  1..36
     &END FIXED_ATOMS
   &END CONSTRAINT
   &PRINT
     &TRAJECTORY  SILENT
       &EACH
         CELL_OPT  1
       &END EACH
     &END TRAJECTORY
   &END PRINT
 &END MOTION
 &FORCE_EVAL
   METHOD  QS
   STRESS_TENSOR  ANALYTICAL
   &DFT
     BASIS_SET_FILE_NAME /rds/general/user/jj1921/home/BASIS_COM_MOLOPT_GTH
     POTENTIAL_FILE_NAME /rds/general/user/jj1921/home/GTH_POTENTIALS
     &SCF
       MAX_SCF  500
       EPS_SCF     9.9999999999999995E-08
       CHOLESKY  INVERSE
       SCF_GUESS  ATOMIC
       ADDED_MOS  20
       &DIAGONALIZATION  T
         ALGORITHM  STANDARD
       &END DIAGONALIZATION
       &SMEAR  T
         METHOD  FERMI_DIRAC
         ELECTRONIC_TEMPERATURE     3.0000000000000000E+02
       &END SMEAR
       &MIXING  T
         METHOD  BROYDEN_MIXING
         ALPHA     4.0000000000000002E-01
         BETA     5.0000000000000000E-01
         NBUFFER  8
       &END MIXING
     &END SCF
     &QS
       EPS_DEFAULT     1.0000000000000000E-14
       METHOD  GPW
     &END QS
     &MGRID
       NGRIDS  4
       CUTOFF     5.0000000000000000E+02
       REL_CUTOFF     4.0000000000000000E+01
     &END MGRID
     &XC
       DENSITY_CUTOFF     1.0000000000000000E-10
       GRADIENT_CUTOFF     1.0000000000000000E-10
       TAU_CUTOFF     1.0000000000000000E-10
       &XC_FUNCTIONAL  NO_SHORTCUT
         &PBE  T
         &END PBE
       &END XC_FUNCTIONAL
     &END XC
     &KPOINTS
       SCHEME MONKHORST-PACK 4 4 1
       FULL_GRID  T
     &END KPOINTS
   &END DFT
   &SUBSYS
     &CELL
       A     1.7811878396732904E+01    0.0000000000000000E+00    0.0000000000000000E+00
       B     0.0000000000000000E+00    1.5425539180689926E+01    0.0000000000000000E+00
       C     0.0000000000000000E+00    0.0000000000000000E+00    3.3083506100957322E+01
       PERIODIC  XYZ
       MULTIPLE_UNIT_CELL  1 1 1
       SYMMETRY  ORTHORHOMBIC
     &END CELL
     &COORD
Au    1.4843231999999993E+00    8.5697439999999980E-01    0.0000000000000000E+00
Au    4.4529695999999976E+00    8.5697439999999980E-01    0.0000000000000000E+00
Au    7.4216159999999967E+00    8.5697439999999980E-01    0.0000000000000000E+00
Au    1.0390262399999997E+01    8.5697439999999980E-01    0.0000000000000000E+00
Au    1.3358908799999995E+01    8.5697439999999980E-01    0.0000000000000000E+00
Au    1.6327555199999992E+01    8.5697439999999980E-01    0.0000000000000000E+00
Au    0.0000000000000000E+00    3.4278975999999992E+00    0.0000000000000000E+00
Au    2.9686463999999986E+00    3.4278975999999992E+00    0.0000000000000000E+00
Au    5.9372927999999972E+00    3.4278975999999992E+00    0.0000000000000000E+00
Au    8.9059391999999953E+00    3.4278975999999992E+00    0.0000000000000000E+00
Au    1.1874585599999994E+01    3.4278975999999992E+00    0.0000000000000000E+00
Au    1.4843231999999993E+01    3.4278975999999992E+00    0.0000000000000000E+00
Au    1.4843231999999993E+00    5.9988207899999981E+00    0.0000000000000000E+00
Au    4.4529695999999976E+00    5.9988207899999981E+00    0.0000000000000000E+00
Au    7.4216159999999967E+00    5.9988207899999981E+00    0.0000000000000000E+00
Au    1.0390262399999997E+01    5.9988207899999981E+00    0.0000000000000000E+00
Au    1.3358908799999995E+01    5.9988207899999981E+00    0.0000000000000000E+00
Au    1.6327555199999992E+01    5.9988207899999981E+00    0.0000000000000000E+00
Au    0.0000000000000000E+00    8.5697439899999992E+00    0.0000000000000000E+00
Au    2.9686463999999986E+00    8.5697439899999992E+00    0.0000000000000000E+00
Au    5.9372927999999972E+00    8.5697439899999992E+00    0.0000000000000000E+00
Au    8.9059391999999953E+00    8.5697439899999992E+00    0.0000000000000000E+00
Au    1.1874585599999994E+01    8.5697439899999992E+00    0.0000000000000000E+00
Au    1.4843231999999993E+01    8.5697439899999992E+00    0.0000000000000000E+00
Au    1.4843231999999993E+00    1.1140667189999997E+01    0.0000000000000000E+00
Au    4.4529695999999976E+00    1.1140667189999997E+01    0.0000000000000000E+00
Au    7.4216159999999967E+00    1.1140667189999997E+01    0.0000000000000000E+00
Au    1.0390262399999997E+01    1.1140667189999997E+01    0.0000000000000000E+00
Au    1.3358908799999995E+01    1.1140667189999997E+01    0.0000000000000000E+00
Au    1.6327555199999992E+01    1.1140667189999997E+01    0.0000000000000000E+00
Au    0.0000000000000000E+00    1.3711590380000002E+01    0.0000000000000000E+00
Au    2.9686463999999986E+00    1.3711590380000002E+01    0.0000000000000000E+00
Au    5.9372927999999972E+00    1.3711590380000002E+01    0.0000000000000000E+00
Au    8.9059391999999953E+00    1.3711590380000002E+01    0.0000000000000000E+00
Au    1.1874585599999994E+01    1.3711590380000002E+01    0.0000000000000000E+00
Au    1.4843231999999993E+01    1.3711590380000002E+01    0.0000000000000000E+00
Au    2.7035020894878069E-09    1.7185711015350837E+00    2.4033927957265866E+00
Au    2.9685410384679574E+00    1.7194916508321179E+00    2.4001235599584958E+00
Au    5.9382672732720705E+00    1.7156719003278020E+00    2.4034472201221906E+00
Au    8.9059391999416508E+00    1.7236408190774701E+00    2.4160047936848521E+00
Au    1.1873611127189500E+01    1.7156718998040683E+00    2.4034472193652050E+00
Au    1.4843337362525441E+01    1.7194916507656199E+00    2.4001235595512047E+00
Au    1.4877181227631140E+00    4.2830832616517069E+00    2.3992325086160728E+00
Au    4.4721372735816933E+00    4.2943083177535550E+00    2.4322594978978902E+00
Au    7.4212820738038490E+00    4.2935102816558173E+00    2.4348633206223220E+00
Au    1.0390596324013648E+01    4.2935102824801232E+00    2.4348633231699099E+00
Au    1.3339741128135378E+01    4.2943083168799046E+00    2.4322594929948451E+00
Au    1.6324160279134350E+01    4.2830832617823633E+00    2.3992325085018011E+00
Au    2.1978249481519322E-09    6.8536887051862143E+00    2.3995904926376492E+00
Au    2.9720873567872834E+00    6.8510318055311048E+00    2.4014232841409218E+00
Au    5.9486883415568172E+00    6.8481101115766698E+00    2.4363731396842216E+00
Au    8.9059392007962774E+00    6.8542749832797742E+00    2.4941982231427717E+00
Au    1.1863190056945673E+01    6.8481101126957356E+00    2.4363731415042253E+00
Au    1.4839791043724711E+01    6.8510318068530864E+00    2.4014232844965910E+00
Au    1.4911356612424242E+00    9.4233540228072457E+00    2.4010605160333247E+00
Au    4.4669118609187128E+00    9.4180152541161810E+00    2.4126665021343539E+00
Au    7.4328768764520117E+00    9.4221705970801111E+00    2.4361134380903184E+00
Au    1.0379001525350407E+01    9.4221705965238023E+00    2.4361134378593210E+00
Au    1.3344966540740808E+01    9.4180152551742662E+00    2.4126665027286158E+00
Au    1.6320742739161933E+01    9.4233540230452846E+00    2.4010605168233212E+00
Au    2.0134766320649431E-09    1.1995845827606541E+01    2.4032737512419917E+00
Au    2.9753906094118014E+00    1.1996454417408451E+01    2.4012875439686954E+00
Au    5.9429603764486263E+00    1.1998068209950990E+01    2.4026970476923108E+00
Au    8.9059392016877652E+00    1.1974196433770391E+01    2.4384377700751512E+00
Au    1.1868918026941360E+01    1.1998068209457287E+01    2.4026970488286223E+00
Au    1.4836487792053449E+01    1.1996454419273169E+01    2.4012875441640005E+00
Au    1.4844071992612988E+00    1.4571421304921950E+01    2.3997181016515952E+00
Au    4.4543386038233370E+00    1.4569732841340997E+01    2.4014207667313348E+00
Au    7.4280185703448263E+00    1.4569367425975628E+01    2.4020412261510238E+00
Au    1.0383859831743331E+01    1.4569367426760312E+01    2.4020412261362609E+00
Au    1.3357539798074523E+01    1.4569732841786882E+01    2.4014207669044327E+00
Au    1.6327471202502966E+01    1.4571421304586398E+01    2.3997181017549241E+00
Au    2.8400261715110276E-09    2.2524130440451023E-05    4.8415575828497870E+00
Au    2.9521613980234989E+00   -5.6566946444422438E-03    4.8468089680745594E+00
Au    5.9141759931031102E+00   -2.0243082534566199E-02    4.8552269894554900E+00
Au    8.9059392018901171E+00   -1.2908635770370264E-02    4.8519864461223987E+00
Au    1.1897702409824168E+01   -2.0243081231891832E-02    4.8552269900161429E+00
Au    1.4859717005054254E+01   -5.6566941502158401E-03    4.8468089689759895E+00
Au    1.4689848005116828E+00    2.5583344926285410E+00    4.8477024441347583E+00
Au    4.4128537104769396E+00    2.5311963969459952E+00    4.8572083328755626E+00
Au    7.3761573985388047E+00    2.4843390873151776E+00    4.8590630129094334E+00
Au    1.0435721002705369E+01    2.4843390888421393E+00    4.8590630133736212E+00
Au    1.3399024691546126E+01    2.5311963969562683E+00    4.8572083328011830E+00
Au    1.6342893601842203E+01    2.5583344918179640E+00    4.8477024428409061E+00
Au    2.7670664471654801E-09    5.1332170476531580E+00    4.8428945606550746E+00
Au    2.9188018328569587E+00    5.1256535326183181E+00    4.8547501302828229E+00
Au    5.8339886190902925E+00    5.0791720008323047E+00    4.9393882235109858E+00
Au    8.9059391972980393E+00    4.9500967483976526E+00    4.8323407749870837E+00
Au    1.1977889782024858E+01    5.0791719985736634E+00    4.9393882104536964E+00
Au    1.4893076568019254E+01    5.1256535335472631E+00    4.8547501282086971E+00
Au    1.4592349541492906E+00    7.7140000713329355E+00    4.8474712352932192E+00
Au    4.3581083395163782E+00    7.7171986916529987E+00    4.8566325163974602E+00
Au    7.2572486980399251E+00    7.8086663106706249E+00    4.8354373207089116E+00
Au    1.0554629701685569E+01    7.8086663109844325E+00    4.8354373226017451E+00
Au    1.3453770061658393E+01    7.7171986941820991E+00    4.8566325164503228E+00
Au    1.6352643447316158E+01    7.7140000715495045E+00    4.8474712336234189E+00
Au    2.0860888054478903E-09    1.0289208616591681E+01    4.8378132864347307E+00
Au    2.9453395939280087E+00    1.0298959244974439E+01    4.8433117428969013E+00
Au    5.8771498463192344E+00    1.0362231403605008E+01    4.8572436808808135E+00
Au    8.9059392018291987E+00    1.0386663437615686E+01    4.9539113429635293E+00
Au    1.1934728558028795E+01    1.0362231405044776E+01    4.8572436823163594E+00
Au    1.4866538810503053E+01    1.0298959247220923E+01    4.8433117436527757E+00
Au    1.4765609174761647E+00    1.2859420438127859E+01    4.8390218362115878E+00
Au    4.4274551451003896E+00    1.2877256783789440E+01    4.8530263560195914E+00
Au    7.4060203835536749E+00    1.2889604567061006E+01    4.8582209107458327E+00
Au    1.0405858021303548E+01    1.2889604567796008E+01    4.8582209115552182E+00
Au    1.3384423259728432E+01    1.2877256786142040E+01    4.8530263568426220E+00
Au    1.6335317485252400E+01    1.2859420438274610E+01    4.8390218365835178E+00
Au    7.4268288831097475E+00    5.9989698615588276E+00    7.0059067003876088E+00
Au    1.0385049524985609E+01    5.9989698647647831E+00    7.0059066956506282E+00
Au    8.9059392079572657E+00    8.5277395746232845E+00    7.0262481416415055E+00
Au    8.9059392064090623E+00    6.7594122906489345E+00    9.2160197120177383E+00
Au    8.9059382703100773E+00    6.2250679088529868E+00    1.1783565362133910E+01
Au    8.9059416304893659E+00    7.5853809843173350E+00    1.4035065218542364E+01
Au    8.9059362184278115E+00    7.1137032047689619E+00    1.6623203192616806E+01
Au    8.9059411096399526E+00    6.0174753498076639E+00    1.8992026585139971E+01
Au    8.9059386801170923E+00    7.3472868109056257E+00    2.1255699725925005E+01
Au    8.9059391975084683E+00    6.9158347085996468E+00    2.3847067355556625E+01
Au    8.9059392033719913E+00    5.1733830240411187E+00    2.6055638052671171E+01
Au    7.4381798328961981E+00    7.7044012020055330E+00    2.6061379841064856E+01
Au    1.0373698579779543E+01    7.7044012035000726E+00    2.6061379852994655E+01
Au    2.3797050038041398E-09    1.7105110846718441E+00    2.8244288258557845E+01
Au    2.9523428103640637E+00    1.7093833138570584E+00    2.8236148792273255E+01
Au    5.9011294654600226E+00    1.6764813220440586E+00    2.8230209637693182E+01
Au    8.9059392011195460E+00    1.6673164457468685E+00    2.8209405332052846E+01
Au    1.1910748935446900E+01    1.6764813256501847E+00    2.8230209639160233E+01
Au    1.4859535592323187E+01    1.7093833105193823E+00    2.8236148793080829E+01
Au    1.4743502552292562E+00    4.2801706989947537E+00    2.8240315087511743E+01
Au    4.4164363494735097E+00    4.2666254294127697E+00    2.8239520183046256E+01
Au    7.3679712706914602E+00    4.1862408007453231E+00    2.8174172189955446E+01
Au    1.0443907123738118E+01    4.1862408030006764E+00    2.8174172189188095E+01
Au    1.3395442052899067E+01    4.2666254259054828E+00    2.8239520182947835E+01
Au    1.6337528146298467E+01    4.2801707030311800E+00    2.8240315089199822E+01
Au    2.7717069558502634E-09    6.8620086479966718E+00    2.8237336810916858E+01
Au    2.9160680089799498E+00    6.8555639236682007E+00    2.8234142085269315E+01
Au    5.8231159908183274E+00    6.8683442794650320E+00    2.8181675489184634E+01
Au    8.9059391993441821E+00    6.8621390835021421E+00    2.8384904053480465E+01
Au    1.1988762412457408E+01    6.8683442731510986E+00    2.8181675493966605E+01
Au    1.4895810393151118E+01    6.8555639236878356E+00    2.8234142085544242E+01
Au    1.4680178411595839E+00    9.4405445716956908E+00    2.8233693978408791E+01
Au    4.4004078121354970E+00    9.4600365221316025E+00    2.8208348151457461E+01
Au    7.3497317676480121E+00    9.5244444502660297E+00    2.8181397628116166E+01
Au    1.0462146635670745E+01    9.5244444615141735E+00    2.8181397636033733E+01
Au    1.3411470585908424E+01    9.4600365201350325E+00    2.8208348153954972E+01
Au    1.6343860558857930E+01    9.4405445757247435E+00    2.8233693979422085E+01
Au    1.6060886278201418E-09    1.2008011119019686E+01    2.8237693450288926E+01
Au    2.9526034293223105E+00    1.2012787292627287E+01    2.8234842311102412E+01
Au    5.9119364683576512E+00    1.2047537584409209E+01    2.8231881220202791E+01
Au    8.9059391962076262E+00    1.2035195053079393E+01    2.8239152297839038E+01
Au    1.1899941932115382E+01    1.2047537590618802E+01    2.8231881221041469E+01
Au    1.4859274969359166E+01    1.2012787290797871E+01    2.8234842312381261E+01
Au    1.4779016495103499E+00    1.4568773187453170E+01    2.8242365071136689E+01
Au    4.4355510706928927E+00    1.4574246625771458E+01    2.8233978883354048E+01
Au    7.4138211992998455E+00    1.4570729422751342E+01    2.8230696609518713E+01
Au    1.0398057199330269E+01    1.4570729419899767E+01    2.8230696611149263E+01
Au    1.3376327329036130E+01    1.4574246625951449E+01    2.8233978884818789E+01
Au    1.6333976749758296E+01    1.4568773190918378E+01    2.8242365070762439E+01
Au    1.9384104057449520E-09    1.0705410822721521E-03    3.0681999235102946E+01
Au    2.9721368853975765E+00    4.5882009380263256E-03    3.0680917519021619E+01
Au    5.9427574063682682E+00   -3.5057463570921732E-03    3.0681133378871639E+01
Au    8.9059391997355313E+00    1.1239643158620343E-02    3.0673112472484416E+01
Au    1.1869120992575381E+01   -3.5057468895733951E-03    3.0681133380529623E+01
Au    1.4839741514335101E+01    4.5882031671412330E-03    3.0680917520084890E+01
Au    1.4872195803082935E+00    2.5760090072858510E+00    3.0680243096856159E+01
Au    4.4577237574745903E+00    2.5710213860686633E+00    3.0679751306907043E+01
Au    7.4197023212945714E+00    2.5797198864568340E+00    3.0660409012273089E+01
Au    1.0392176079432591E+01    2.5797198882476868E+00    3.0660409011367864E+01
Au    1.3354154643052983E+01    2.5710213848507557E+00    3.0679751308329983E+01
Au    1.6324658821356092E+01    2.5760090060116125E+00    3.0680243096420256E+01
Au    2.9838782829108213E-09    5.1463282635124434E+00    3.0681354153759326E+01
Au    2.9707730565339370E+00    5.1464817389490269E+00    3.0680476966142848E+01
Au    5.9519120924785938E+00    5.1511659788667634E+00    3.0623994721145298E+01
Au    8.9059391997304758E+00    5.1269684917218443E+00    3.0666397894010544E+01
Au    1.1859966307256784E+01    5.1511659764038313E+00    3.0623994717833078E+01
Au    1.4841105344846284E+01    5.1464817415027602E+00    3.0680476968372190E+01
Au    1.4845133316993795E+00    7.7175429016359605E+00    3.0682527985155392E+01
Au    4.4584343158313766E+00    7.7082134171389978E+00    3.0666127233582515E+01
Au    7.4104563421028473E+00    7.7200356218812196E+00    3.0667535642972911E+01
Au    1.0401422058696818E+01    7.7200356231530591E+00    3.0667535644231023E+01
Au    1.3353444083849828E+01    7.7082134177518888E+00    3.0666127233827432E+01
Au    1.6327365069197164E+01    7.7175429016848671E+00    3.0682527983612246E+01
Au    1.4263147161566835E-09    1.0286947305971932E+01    3.0682940606669472E+01
Au    2.9795599400418311E+00    1.0277917753789312E+01    3.0674717325440930E+01
Au    5.9449259388655653E+00    1.0284402790677898E+01    3.0664741097393598E+01
Au    8.9059391977886069E+00    1.0267691314290618E+01    3.0625349355409291E+01
Au    1.1866952461492582E+01    1.0284402790462131E+01    3.0664741099522438E+01
Au    1.4832318460516703E+01    1.0277917754424546E+01    3.0674717326121396E+01
Au    1.4865551214138311E+00    1.2851877674720821E+01    3.0682741897228318E+01
Au    4.4511198759056692E+00    1.2855676595700654E+01    3.0681991192595945E+01
Au    7.4236004865183354E+00    1.2853576528768240E+01    3.0678890949171901E+01
Au    1.0388277910222554E+01    1.2853576529807221E+01    3.0678890950016410E+01
Au    1.3360758523326059E+01    1.2855676596431014E+01    3.0681991193745347E+01
Au    1.6325323278030094E+01    1.2851877673891767E+01    3.0682741896428855E+01
     &END COORD
     &KIND Au
       BASIS_SET TZVP-MOLOPT-SR-GTH-q11
       ELEMENT Au
       POTENTIAL GTH-PBE-q11
       &POTENTIAL
1 0 10
0.5900000000000000E+00 1  0.1051717881000000E+02
3
0.5438473300000000E+00 2  0.5786811030000000E+01 -0.2250679660000000E+01
0.2905614950000000E+01
0.6091729800000000E+00 2  0.4284048730000000E+01 -0.4071285200000000E+01
0.4817209620000000E+01
0.4373092200000000E+00 2 -0.7403281240000000E+01  0.3010193070000000E+01
-0.3413238110000000E+01
       &END POTENTIAL
     &END KIND
     &TOPOLOGY
       COORD_FILE_NAME junction_65.xyz
       COORD_FILE_FORMAT  XYZ
       NUMBER_OF_ATOMS  193
       MULTIPLE_UNIT_CELL  1 1 1
     &END TOPOLOGY
   &END SUBSYS
   &PRINT
     &TOTAL_NUMBERS  ON
     &END TOTAL_NUMBERS
   &END PRINT
 &END FORCE_EVAL
