 # Version information for this restart file 
 # current date 2022-04-30 02:20:40.021
 # current working dir /rds/general/user/jj1921/home/junction/ortho/cell_65
 # Program compiled at                              Thu 12 Jul 13:52:12 BST 2018
 # Program compiled on                                      build-2.hpc.ic.ac.uk
 # Program compiled for                                       Linux-x86-64-intel
 # Source code revision number                                         svn:18464
 &GLOBAL
   PRINT_LEVEL  MEDIUM
   PROJECT_NAME Au_junction
   RUN_TYPE  CELL_OPT
 &END GLOBAL
 &MOTION
   &CELL_OPT
     OPTIMIZER  BFGS
     STEP_START_VAL  37
     TYPE  DIRECT_CELL_OPT
     KEEP_ANGLES  T
     KEEP_SYMMETRY  T
     CONSTRAINT  XY
   &END CELL_OPT
   &CONSTRAINT
     &FIXED_ATOMS
       COMPONENTS_TO_FIX  XYZ
       LIST  1..36
     &END FIXED_ATOMS
   &END CONSTRAINT
   &PRINT
     &TRAJECTORY  SILENT
       &EACH
         CELL_OPT  1
       &END EACH
     &END TRAJECTORY
   &END PRINT
 &END MOTION
 &FORCE_EVAL
   METHOD  QS
   STRESS_TENSOR  ANALYTICAL
   &DFT
     BASIS_SET_FILE_NAME /rds/general/user/jj1921/home/BASIS_COM_MOLOPT_GTH
     POTENTIAL_FILE_NAME /rds/general/user/jj1921/home/GTH_POTENTIALS
     &SCF
       MAX_SCF  500
       EPS_SCF     9.9999999999999995E-08
       CHOLESKY  INVERSE
       SCF_GUESS  ATOMIC
       ADDED_MOS  20
       &DIAGONALIZATION  T
         ALGORITHM  STANDARD
       &END DIAGONALIZATION
       &SMEAR  T
         METHOD  FERMI_DIRAC
         ELECTRONIC_TEMPERATURE     3.0000000000000000E+02
       &END SMEAR
       &MIXING  T
         METHOD  BROYDEN_MIXING
         ALPHA     4.0000000000000002E-01
         BETA     5.0000000000000000E-01
         NBUFFER  8
       &END MIXING
     &END SCF
     &QS
       EPS_DEFAULT     1.0000000000000000E-14
       METHOD  GPW
     &END QS
     &MGRID
       NGRIDS  4
       CUTOFF     5.0000000000000000E+02
       REL_CUTOFF     4.0000000000000000E+01
     &END MGRID
     &XC
       DENSITY_CUTOFF     1.0000000000000000E-10
       GRADIENT_CUTOFF     1.0000000000000000E-10
       TAU_CUTOFF     1.0000000000000000E-10
       &XC_FUNCTIONAL  NO_SHORTCUT
         &PBE  T
         &END PBE
       &END XC_FUNCTIONAL
     &END XC
     &KPOINTS
       SCHEME MONKHORST-PACK 4 4 1
       FULL_GRID  T
     &END KPOINTS
   &END DFT
   &SUBSYS
     &CELL
       A     1.7811878396732901E+01    0.0000000000000000E+00    0.0000000000000000E+00
       B     0.0000000000000000E+00    1.5425539180689929E+01    0.0000000000000000E+00
       C     0.0000000000000000E+00    0.0000000000000000E+00    3.4038997068325763E+01
       PERIODIC  XYZ
       MULTIPLE_UNIT_CELL  1 1 1
       SYMMETRY  ORTHORHOMBIC
     &END CELL
     &COORD
Au    1.4843231999999995E+00    8.5697439999999980E-01    0.0000000000000000E+00
Au    4.4529695999999985E+00    8.5697439999999980E-01    0.0000000000000000E+00
Au    7.4216159999999975E+00    8.5697439999999980E-01    0.0000000000000000E+00
Au    1.0390262399999999E+01    8.5697439999999980E-01    0.0000000000000000E+00
Au    1.3358908799999998E+01    8.5697439999999980E-01    0.0000000000000000E+00
Au    1.6327555199999995E+01    8.5697439999999980E-01    0.0000000000000000E+00
Au    0.0000000000000000E+00    3.4278975999999992E+00    0.0000000000000000E+00
Au    2.9686463999999990E+00    3.4278975999999992E+00    0.0000000000000000E+00
Au    5.9372927999999980E+00    3.4278975999999992E+00    0.0000000000000000E+00
Au    8.9059391999999971E+00    3.4278975999999992E+00    0.0000000000000000E+00
Au    1.1874585599999996E+01    3.4278975999999992E+00    0.0000000000000000E+00
Au    1.4843231999999995E+01    3.4278975999999992E+00    0.0000000000000000E+00
Au    1.4843231999999995E+00    5.9988207899999981E+00    0.0000000000000000E+00
Au    4.4529695999999985E+00    5.9988207899999981E+00    0.0000000000000000E+00
Au    7.4216159999999975E+00    5.9988207899999981E+00    0.0000000000000000E+00
Au    1.0390262399999999E+01    5.9988207899999981E+00    0.0000000000000000E+00
Au    1.3358908799999998E+01    5.9988207899999981E+00    0.0000000000000000E+00
Au    1.6327555199999995E+01    5.9988207899999981E+00    0.0000000000000000E+00
Au    0.0000000000000000E+00    8.5697439899999974E+00    0.0000000000000000E+00
Au    2.9686463999999990E+00    8.5697439899999974E+00    0.0000000000000000E+00
Au    5.9372927999999980E+00    8.5697439899999974E+00    0.0000000000000000E+00
Au    8.9059391999999971E+00    8.5697439899999974E+00    0.0000000000000000E+00
Au    1.1874585599999996E+01    8.5697439899999974E+00    0.0000000000000000E+00
Au    1.4843231999999995E+01    8.5697439899999974E+00    0.0000000000000000E+00
Au    1.4843231999999995E+00    1.1140667189999997E+01    0.0000000000000000E+00
Au    4.4529695999999985E+00    1.1140667189999997E+01    0.0000000000000000E+00
Au    7.4216159999999975E+00    1.1140667189999997E+01    0.0000000000000000E+00
Au    1.0390262399999999E+01    1.1140667189999997E+01    0.0000000000000000E+00
Au    1.3358908799999998E+01    1.1140667189999997E+01    0.0000000000000000E+00
Au    1.6327555199999995E+01    1.1140667189999997E+01    0.0000000000000000E+00
Au    0.0000000000000000E+00    1.3711590380000001E+01    0.0000000000000000E+00
Au    2.9686463999999990E+00    1.3711590380000001E+01    0.0000000000000000E+00
Au    5.9372927999999980E+00    1.3711590380000001E+01    0.0000000000000000E+00
Au    8.9059391999999971E+00    1.3711590380000001E+01    0.0000000000000000E+00
Au    1.1874585599999996E+01    1.3711590380000001E+01    0.0000000000000000E+00
Au    1.4843231999999995E+01    1.3711590380000001E+01    0.0000000000000000E+00
Au    1.0836060820633239E-09    1.7092372770323934E+00    2.4107047618500750E+00
Au    2.9585611933048508E+00    1.7080215938615495E+00    2.4086751917735647E+00
Au    5.9229444597247891E+00    1.7140581580586913E+00    2.4075775895879743E+00
Au    8.9059391996271557E+00    1.7316302812576527E+00    2.4207744261020991E+00
Au    1.1888933939765609E+01    1.7140581579093284E+00    2.4075775891510571E+00
Au    1.4853317205549978E+01    1.7080215940615979E+00    2.4086751921892140E+00
Au    1.4796195361471425E+00    4.2772132385813837E+00    2.4080358976912546E+00
Au    4.4482067414815614E+00    4.2826740165732522E+00    2.4318173665476825E+00
Au    7.4073156084014373E+00    4.2860428490418823E+00    2.4217996310158219E+00
Au    1.0404562790779483E+01    4.2860428483680071E+00    2.4217996307950131E+00
Au    1.3363671658379133E+01    4.2826740166949291E+00    2.4318173661715430E+00
Au    1.6332258862925084E+01    4.2772132387551975E+00    2.4080358991972055E+00
Au    1.3712000621194907E-09    6.8521848720528906E+00    2.4095302045947498E+00
Au    2.9609668289690241E+00    6.8477751902253878E+00    2.4071726753023901E+00
Au    5.9287498493185584E+00    6.8433997925721544E+00    2.4219387929341312E+00
Au    8.9059391995893851E+00    6.8556656606485324E+00    2.4801528719249673E+00
Au    1.1883128550401480E+01    6.8433997928077259E+00    2.4219387928688016E+00
Au    1.4850911570255146E+01    6.8477751905412614E+00    2.4071726762470700E+00
Au    1.4881226006740722E+00    9.4232838792019766E+00    2.4105461795475573E+00
Au    4.4621083315955667E+00    9.4198418198740708E+00    2.4181982283019554E+00
Au    7.4271310903647985E+00    9.4398842825888387E+00    2.4215435233346501E+00
Au    1.0384747309316877E+01    9.4398842829647798E+00    2.4215435230941691E+00
Au    1.3349770068284966E+01    9.4198418201544367E+00    2.4181982283846994E+00
Au    1.6323755798482757E+01    9.4232838792208877E+00    2.4105461807836095E+00
Au    1.6950251376724258E-09    1.1990493037164264E+01    2.4099845569231393E+00
Au    2.9699473051695677E+00    1.1994015662605557E+01    2.4088461899799127E+00
Au    5.9372356706511020E+00    1.2008296474609562E+01    2.4085062000884916E+00
Au    8.9059392001803168E+00    1.2006626892826974E+01    2.4331995087165454E+00
Au    1.1874642729602201E+01    1.2008296474651701E+01    2.4085062009376501E+00
Au    1.4841931094945597E+01    1.1994015662761775E+01    2.4088461899450375E+00
Au    1.4812224171929154E+00    1.4562753858536190E+01    2.4090944099535379E+00
Au    4.4467489661658686E+00    1.4569310655474569E+01    2.4091741033845206E+00
Au    7.4207720697397654E+00    1.4583897957047652E+01    2.4095122597944569E+00
Au    1.0391106330546078E+01    1.4583897957123364E+01    2.4095122596266987E+00
Au    1.3365129434102702E+01    1.4569310655584287E+01    2.4091741031763432E+00
Au    1.6330655982472244E+01    1.4562753858568080E+01    2.4090944111784451E+00
Au    1.9678376151597996E-09   -1.0561359249198200E-02    4.8660123242358440E+00
Au    2.9384292139607049E+00   -1.4036285635612883E-02    4.8688143627581191E+00
Au    5.8968651211927892E+00   -1.6426277265664074E-02    4.8718145917767099E+00
Au    8.9059392001415585E+00   -2.0705358908188450E-03    4.8616639687104000E+00
Au    1.1915013279523208E+01   -1.6426279024905042E-02    4.8718145920165687E+00
Au    1.4873449186639485E+01   -1.4036284665885999E-02    4.8688143631992542E+00
Au    1.4626740230454593E+00    2.5518217984062006E+00    4.8717721444047593E+00
Au    4.3942273737136288E+00    2.5240527807249453E+00    4.8704057116679538E+00
Au    7.3593742158721200E+00    2.4828595947388399E+00    4.8607953375878186E+00
Au    1.0452504186656892E+01    2.4828595937036231E+00    4.8607953376921786E+00
Au    1.3417651025533370E+01    2.5240527818961098E+00    4.8704057126171705E+00
Au    1.6349204376638490E+01    2.5518217972083881E+00    4.8717721446385172E+00
Au    1.4339516300487069E-09    5.1323621633694536E+00    4.8672912128532371E+00
Au    2.9063608788295343E+00    5.1215221476454538E+00    4.8685927937347673E+00
Au    5.8111744416504783E+00    5.0677835355867957E+00    4.9132553480383381E+00
Au    8.9059392007157570E+00    4.9286478321627998E+00    4.7949564232588884E+00
Au    1.2000703956603688E+01    5.0677835367692223E+00    4.9132553466970208E+00
Au    1.4905517519683011E+01    5.1215221475846775E+00    4.8685927938844733E+00
Au    1.4541603079579586E+00    7.7161635842337111E+00    4.8687361462106526E+00
Au    4.3454109256304703E+00    7.7121476924777381E+00    4.8614694615860268E+00
Au    7.2341622868835538E+00    7.8181528695000990E+00    4.7950289464598885E+00
Au    1.0577716112717713E+01    7.8181528692357194E+00    4.7950289457989337E+00
Au    1.3466467473977044E+01    7.7121476956186319E+00    4.8614694626071282E+00
Au    1.6357718091226150E+01    7.7161635823324515E+00    4.8687361462093666E+00
Au    1.6959373214011942E-09    1.0287410174312960E+01    4.8604911363602739E+00
Au    2.9398395134112718E+00    1.0297666557123433E+01    4.8598440312037177E+00
Au    5.8749534199440570E+00    1.0373087861417931E+01    4.8595145075878543E+00
Au    8.9059392014668628E+00    1.0422972170605682E+01    4.9050658665574574E+00
Au    1.1936924981175684E+01    1.0373087861855952E+01    4.8595145088356020E+00
Au    1.4872038886827266E+01    1.0297666558601545E+01    4.8598440316334806E+00
Au    1.4722280445618490E+00    1.2852938106365949E+01    4.8613361086545579E+00
Au    4.4151586150954412E+00    1.2876977548643200E+01    4.8692937840376382E+00
Au    7.3966665808285628E+00    1.2911760731302582E+01    4.8633481627741233E+00
Au    1.0415211818753917E+01    1.2911760731781390E+01    4.8633481627984763E+00
Au    1.3396719786251332E+01    1.2876977549650992E+01    4.8692937844727737E+00
Au    1.6339650356637900E+01    1.2852938105273982E+01    4.8613361091361549E+00
Au    7.4243361156881038E+00    5.9958413281192424E+00    6.9467898235778334E+00
Au    1.0387542284707621E+01    5.9958413284674696E+00    6.9467898239392740E+00
Au    8.9059392004937390E+00    8.5678148238652021E+00    6.9421623480816841E+00
Au    8.9059392001623134E+00    6.8581558493331096E+00    9.0988949366012228E+00
Au    8.9059391959283314E+00    6.8399641128040392E+00    1.1716182098296445E+01
Au    8.9059392029191162E+00    6.8869911570818552E+00    1.4355721934168681E+01
Au    8.9059391975763731E+00    6.8586431886903441E+00    1.6992589644175176E+01
Au    8.9059392024894315E+00    6.8218497618077638E+00    1.9633593507306482E+01
Au    8.9059392014751584E+00    6.8703032924005205E+00    2.2264939272328395E+01
Au    8.9059392007065306E+00    6.8534612028345574E+00    2.4887731744994788E+01
Au    8.9059391965812100E+00    5.1542450601380985E+00    2.7055636077145031E+01
Au    7.4332341583176040E+00    7.7119140639027224E+00    2.7051755248874940E+01
Au    1.0378644242374577E+01    7.7119140619208357E+00    2.7051755250014974E+01
Au    2.0405335931224503E-09    1.7052183389350910E+00    2.9178089287645438E+01
Au    2.9411292082777321E+00    1.7042771902712366E+00    2.9173270044088731E+01
Au    5.8874506870085996E+00    1.6701148849430731E+00    2.9178316027178031E+01
Au    8.9059392027593169E+00    1.6649567638587288E+00    2.9159925370694179E+01
Au    1.1924427713538257E+01    1.6701148889166713E+00    2.9178316027342301E+01
Au    1.4870749192057554E+01    1.7042771879876457E+00    2.9173270043657745E+01
Au    1.4696360763710150E+00    4.2745825124343497E+00    2.9176768834202566E+01
Au    4.4049466617351678E+00    4.2594930656248362E+00    2.9188602030842301E+01
Au    7.3607348708238858E+00    4.1719055527593882E+00    2.9154719506445232E+01
Au    1.0451143520052215E+01    4.1719055551077400E+00    2.9154719509656562E+01
Au    1.3406931738386170E+01    4.2594930615401951E+00    2.9188602031888269E+01
Au    1.6342242323142429E+01    4.2745825167549665E+00    2.9176768833925447E+01
Au    1.0996014904577169E-09    6.8586057963772920E+00    2.9172426140483644E+01
Au    2.9101672978217219E+00    6.8524069246113175E+00    2.9176465694822525E+01
Au    5.8078506427326539E+00    6.8686306568525968E+00    2.9154910931453937E+01
Au    8.9059391993622228E+00    6.8619109751910576E+00    2.9364868494127126E+01
Au    1.2004027755058710E+01    6.8686306526783447E+00    2.9154910933362093E+01
Au    1.4901711100733770E+01    6.8524069248480144E+00    2.9176465694763191E+01
Au    1.4656187651048029E+00    9.4370043372720609E+00    2.9170675125022942E+01
Au    4.3973784505627433E+00    9.4594624566275378E+00    2.9155790916445024E+01
Au    7.3451474823633376E+00    9.5391563998214597E+00    2.9153923314820471E+01
Au    1.0466730927983555E+01    9.5391564012598291E+00    2.9153923312955467E+01
Au    1.3414499951235333E+01    9.4594624515316568E+00    2.9155790916188025E+01
Au    1.6346259636254739E+01    9.4370043413838314E+00    2.9170675124310030E+01
Au    1.6403840433413130E-09    1.2003477983117087E+01    2.9172618359257289E+01
Au    2.9456095484309226E+00    1.2008778225101262E+01    2.9170785422824405E+01
Au    5.9024540835673820E+00    1.2054514800188327E+01    2.9178624353052097E+01
Au    8.9059391984806862E+00    1.2048257270118897E+01    2.9192360899511684E+01
Au    1.1909424317394208E+01    1.2054514802878982E+01    2.9178624352879211E+01
Au    1.4866268851368673E+01    1.2008778222508822E+01    2.9170785422431614E+01
Au    1.4726119542927338E+00    1.4564155870440970E+01    2.9176984647397873E+01
Au    4.4203953513941876E+00    1.4570277912884210E+01    2.9171865902313737E+01
Au    7.4084355120900556E+00    1.4575532678942713E+01    2.9172958180074271E+01
Au    1.0403442888992620E+01    1.4575532676182547E+01    2.9172958180050887E+01
Au    1.3391483049010970E+01    1.4570277911979808E+01    2.9171865902218247E+01
Au    1.6339266445466134E+01    1.4564155873488003E+01    2.9176984647391183E+01
Au    1.6592016556288163E-09    1.5855253360642853E-03    3.1629942266415245E+01
Au    2.9639726725532176E+00    3.1840511767676728E-03    3.1628345879502096E+01
Au    5.9339642477419305E+00   -8.9554472324678037E-03    3.1629100753901234E+01
Au    8.9059392004319946E+00    2.7667374305941697E-03    3.1619387901837349E+01
Au    1.1877914152751751E+01   -8.9554476636635235E-03    3.1629100753126917E+01
Au    1.4847905727632300E+01    3.1840514239428377E-03    3.1628345880288101E+01
Au    1.4839894502655466E+00    2.5738256022158708E+00    3.1628155604767809E+01
Au    4.4522238955279780E+00    2.5679134964758372E+00    3.1631028224116886E+01
Au    7.4130770811145359E+00    2.5635355837016700E+00    3.1620835402837415E+01
Au    1.0398801319690877E+01    2.5635355839358684E+00    3.1620835403937662E+01
Au    1.3359654504957073E+01    2.5679134960923089E+00    3.1631028225012024E+01
Au    1.6327888949842144E+01    2.5738256025737702E+00    3.1628155603307214E+01
Au    2.1232862411789961E-09    5.1443743507992696E+00    3.1626862664806058E+01
Au    2.9663688959370336E+00    5.1447775992072948E+00    3.1630667857896466E+01
Au    5.9396790152153871E+00    5.1446824305108203E+00    3.1586411026476348E+01
Au    8.9059391989537282E+00    5.1184981508714253E+00    3.1631787309237620E+01
Au    1.1872199383635719E+01    5.1446824297457390E+00    3.1586411026457384E+01
Au    1.4845509503594146E+01    5.1447775998271306E+00    3.1630667857718571E+01
Au    1.4794992306487944E+00    7.7186835455242546E+00    3.1629734417784778E+01
Au    4.4437957113028244E+00    7.7119571043353030E+00    3.1621843071529632E+01
Au    7.4011214577170525E+00    7.7249769284603325E+00    3.1633291447241486E+01
Au    1.0410756941491226E+01    7.7249769289083297E+00    3.1633291447161501E+01
Au    1.3368082687573315E+01    7.7119571038596018E+00    3.1621843072239894E+01
Au    1.6332379169054864E+01    7.7186835453106690E+00    3.1629734416903208E+01
Au    1.6134016445150914E-09    1.0289730429301805E+01    3.1628097817404132E+01
Au    2.9714118211916141E+00    1.0280955980430848E+01    3.1622701733783305E+01
Au    5.9325739297072948E+00    1.0293196564887831E+01    3.1621388447656035E+01
Au    8.9059392010099163E+00    1.0278005062094493E+01    3.1588137697744809E+01
Au    1.1879304471265149E+01    1.0293196565159580E+01    3.1621388447669844E+01
Au    1.4840466578407002E+01    1.0280955980372536E+01    3.1622701733810391E+01
Au    1.4816150822481191E+00    1.2855016965025163E+01    3.1629613202962329E+01
Au    4.4409357610776592E+00    1.2856629483655228E+01    3.1629737049318539E+01
Au    7.4183439813330390E+00    1.2853002947598762E+01    3.1630172823293830E+01
Au    1.0393534417970974E+01    1.2853002947765809E+01    3.1630172823358254E+01
Au    1.3370942638496881E+01    1.2856629483801532E+01    3.1629737049187661E+01
Au    1.6330263316789217E+01    1.2855016964681584E+01    3.1629613201796502E+01
     &END COORD
     &KIND Au
       BASIS_SET TZVP-MOLOPT-SR-GTH-q11
       ELEMENT Au
       POTENTIAL GTH-PBE-q11
       &POTENTIAL
1 0 10
0.5900000000000000E+00 1  0.1051717881000000E+02
3
0.5438473300000000E+00 2  0.5786811030000000E+01 -0.2250679660000000E+01
0.2905614950000000E+01
0.6091729800000000E+00 2  0.4284048730000000E+01 -0.4071285200000000E+01
0.4817209620000000E+01
0.4373092200000000E+00 2 -0.7403281240000000E+01  0.3010193070000000E+01
-0.3413238110000000E+01
       &END POTENTIAL
     &END KIND
     &TOPOLOGY
       COORD_FILE_NAME junction_65.xyz
       COORD_FILE_FORMAT  XYZ
       NUMBER_OF_ATOMS  193
       MULTIPLE_UNIT_CELL  1 1 1
     &END TOPOLOGY
   &END SUBSYS
   &PRINT
     &TOTAL_NUMBERS  ON
     &END TOTAL_NUMBERS
   &END PRINT
 &END FORCE_EVAL
