 # Version information for this restart file 
 # current date 2022-05-08 04:02:01.289
 # current working dir /rds/general/user/jj1921/home/junction/ortho/cell_65
 # Program compiled at                              Thu 12 Jul 13:52:12 BST 2018
 # Program compiled on                                      build-2.hpc.ic.ac.uk
 # Program compiled for                                       Linux-x86-64-intel
 # Source code revision number                                         svn:18464
 &GLOBAL
   PRINT_LEVEL  MEDIUM
   PROJECT_NAME Au_junction
   RUN_TYPE  CELL_OPT
 &END GLOBAL
 &MOTION
   &CELL_OPT
     OPTIMIZER  BFGS
     STEP_START_VAL  182
     TYPE  DIRECT_CELL_OPT
     KEEP_ANGLES  T
     KEEP_SYMMETRY  T
     CONSTRAINT  XY
   &END CELL_OPT
   &CONSTRAINT
     &FIXED_ATOMS
       COMPONENTS_TO_FIX  XYZ
       LIST  1..36
     &END FIXED_ATOMS
   &END CONSTRAINT
   &PRINT
     &TRAJECTORY  SILENT
       &EACH
         CELL_OPT  1
       &END EACH
     &END TRAJECTORY
   &END PRINT
 &END MOTION
 &FORCE_EVAL
   METHOD  QS
   STRESS_TENSOR  ANALYTICAL
   &DFT
     BASIS_SET_FILE_NAME /rds/general/user/jj1921/home/BASIS_COM_MOLOPT_GTH
     POTENTIAL_FILE_NAME /rds/general/user/jj1921/home/GTH_POTENTIALS
     &SCF
       MAX_SCF  500
       EPS_SCF     9.9999999999999995E-08
       CHOLESKY  INVERSE
       SCF_GUESS  ATOMIC
       ADDED_MOS  20
       &DIAGONALIZATION  T
         ALGORITHM  STANDARD
       &END DIAGONALIZATION
       &SMEAR  T
         METHOD  FERMI_DIRAC
         ELECTRONIC_TEMPERATURE     3.0000000000000000E+02
       &END SMEAR
       &MIXING  T
         METHOD  BROYDEN_MIXING
         ALPHA     4.0000000000000002E-01
         BETA     5.0000000000000000E-01
         NBUFFER  8
       &END MIXING
     &END SCF
     &QS
       EPS_DEFAULT     1.0000000000000000E-14
       METHOD  GPW
     &END QS
     &MGRID
       NGRIDS  4
       CUTOFF     5.0000000000000000E+02
       REL_CUTOFF     4.0000000000000000E+01
     &END MGRID
     &XC
       DENSITY_CUTOFF     1.0000000000000000E-10
       GRADIENT_CUTOFF     1.0000000000000000E-10
       TAU_CUTOFF     1.0000000000000000E-10
       &XC_FUNCTIONAL  NO_SHORTCUT
         &PBE  T
         &END PBE
       &END XC_FUNCTIONAL
     &END XC
     &KPOINTS
       SCHEME MONKHORST-PACK 4 4 1
       FULL_GRID  T
     &END KPOINTS
   &END DFT
   &SUBSYS
     &CELL
       A     1.7811878396732908E+01    0.0000000000000000E+00    0.0000000000000000E+00
       B     0.0000000000000000E+00    1.5425539180689926E+01    0.0000000000000000E+00
       C     0.0000000000000000E+00    0.0000000000000000E+00    3.2277862960601247E+01
       PERIODIC  XYZ
       MULTIPLE_UNIT_CELL  1 1 1
       SYMMETRY  ORTHORHOMBIC
     &END CELL
     &COORD
Au    1.4843231999999993E+00    8.5697440000000025E-01    0.0000000000000000E+00
Au    4.4529695999999976E+00    8.5697440000000025E-01    0.0000000000000000E+00
Au    7.4216159999999967E+00    8.5697440000000025E-01    0.0000000000000000E+00
Au    1.0390262400000001E+01    8.5697440000000025E-01    0.0000000000000000E+00
Au    1.3358908799999995E+01    8.5697440000000025E-01    0.0000000000000000E+00
Au    1.6327555199999992E+01    8.5697440000000025E-01    0.0000000000000000E+00
Au    0.0000000000000000E+00    3.4278976000000010E+00    0.0000000000000000E+00
Au    2.9686463999999986E+00    3.4278976000000010E+00    0.0000000000000000E+00
Au    5.9372927999999972E+00    3.4278976000000010E+00    0.0000000000000000E+00
Au    8.9059391999999953E+00    3.4278976000000010E+00    0.0000000000000000E+00
Au    1.1874585599999994E+01    3.4278976000000010E+00    0.0000000000000000E+00
Au    1.4843231999999993E+01    3.4278976000000010E+00    0.0000000000000000E+00
Au    1.4843231999999993E+00    5.9988207899999999E+00    0.0000000000000000E+00
Au    4.4529695999999976E+00    5.9988207899999999E+00    0.0000000000000000E+00
Au    7.4216159999999967E+00    5.9988207899999999E+00    0.0000000000000000E+00
Au    1.0390262400000001E+01    5.9988207899999999E+00    0.0000000000000000E+00
Au    1.3358908799999995E+01    5.9988207899999999E+00    0.0000000000000000E+00
Au    1.6327555199999992E+01    5.9988207899999999E+00    0.0000000000000000E+00
Au    0.0000000000000000E+00    8.5697439900000028E+00    0.0000000000000000E+00
Au    2.9686463999999986E+00    8.5697439900000028E+00    0.0000000000000000E+00
Au    5.9372927999999972E+00    8.5697439900000028E+00    0.0000000000000000E+00
Au    8.9059391999999953E+00    8.5697439900000028E+00    0.0000000000000000E+00
Au    1.1874585599999994E+01    8.5697439900000028E+00    0.0000000000000000E+00
Au    1.4843231999999993E+01    8.5697439900000028E+00    0.0000000000000000E+00
Au    1.4843231999999993E+00    1.1140667190000002E+01    0.0000000000000000E+00
Au    4.4529695999999976E+00    1.1140667190000002E+01    0.0000000000000000E+00
Au    7.4216159999999967E+00    1.1140667190000002E+01    0.0000000000000000E+00
Au    1.0390262400000001E+01    1.1140667190000002E+01    0.0000000000000000E+00
Au    1.3358908799999995E+01    1.1140667190000002E+01    0.0000000000000000E+00
Au    1.6327555199999992E+01    1.1140667190000002E+01    0.0000000000000000E+00
Au    0.0000000000000000E+00    1.3711590380000011E+01    0.0000000000000000E+00
Au    2.9686463999999986E+00    1.3711590380000011E+01    0.0000000000000000E+00
Au    5.9372927999999972E+00    1.3711590380000011E+01    0.0000000000000000E+00
Au    8.9059391999999953E+00    1.3711590380000011E+01    0.0000000000000000E+00
Au    1.1874585599999994E+01    1.3711590380000011E+01    0.0000000000000000E+00
Au    1.4843231999999993E+01    1.3711590380000011E+01    0.0000000000000000E+00
Au    5.3153023181202083E-07    1.7060695657130092E+00    2.4119299096157087E+00
Au    2.9548138718431027E+00    1.7070376727375425E+00    2.4081568106050630E+00
Au    5.9229427370258332E+00    1.7102487149373651E+00    2.4070994051873611E+00
Au    8.9059394875338516E+00    1.7276736450671650E+00    2.4184679816264532E+00
Au    1.1888936556770030E+01    1.7102481500209912E+00    2.4070988969924394E+00
Au    1.4857065324617464E+01    1.7070372593110781E+00    2.4081574343891372E+00
Au    1.4770381870590104E+00    4.2754463014512982E+00    2.4071287131059318E+00
Au    4.4459546056356691E+00    4.2799313626872104E+00    2.4285142142653546E+00
Au    7.4071097178595853E+00    4.2856426782550452E+00    2.4185321797619808E+00
Au    1.0404769865996853E+01    4.2856434739749991E+00    2.4185350097635756E+00
Au    1.3365924168190826E+01    4.2799313972946429E+00    2.4285132202125213E+00
Au    1.6334842103927826E+01    4.2754464831634609E+00    2.4071290501723128E+00
Au    9.9697402306564320E-07    6.8488761650195382E+00    2.4061734906718399E+00
Au    2.9604998231493203E+00    6.8471514966092153E+00    2.4075967077832350E+00
Au    5.9300188614860678E+00    6.8443935159680702E+00    2.4216571201249972E+00
Au    8.9059395632748579E+00    6.8572314813837085E+00    2.4806430764241112E+00
Au    1.1881859465778348E+01    6.8443948545281197E+00    2.4216611919992319E+00
Au    1.4851380160063693E+01    6.8471506368374486E+00    2.4075965075957271E+00
Au    1.4891831983593371E+00    9.4206480168443996E+00    2.4098565690370513E+00
Au    4.4599531937377499E+00    9.4208302472818737E+00    2.4142642739153515E+00
Au    7.4277204319768400E+00    9.4354403873455137E+00    2.4257234929628502E+00
Au    1.0384160315431830E+01    9.4354388572264085E+00    2.4257251542570613E+00
Au    1.3351926207584340E+01    9.4208309630103404E+00    2.4142659831552824E+00
Au    1.6322695455050567E+01    9.4206481374032158E+00    2.4098556489796312E+00
Au   -2.2533594531074855E-07    1.1987486800515434E+01    2.4124565192894614E+00
Au    2.9699315275091145E+00    1.1993533704833590E+01    2.4086815657533851E+00
Au    5.9368238363448285E+00    1.2007144946197569E+01    2.4060880939674916E+00
Au    8.9059399711052230E+00    1.1995463097960009E+01    2.4341590837535692E+00
Au    1.1875055039410160E+01    1.2007145374681023E+01    2.4060881852435707E+00
Au    1.4841947444958899E+01    1.1993534525078054E+01    2.4086804383890930E+00
Au    1.4798048971114559E+00    1.4560136410178041E+01    2.4104623814440900E+00
Au    4.4452479416448050E+00    1.4569993710524441E+01    2.4075185005615762E+00
Au    7.4219950754528377E+00    1.4579007383800230E+01    2.4033108302666606E+00
Au    1.0389883057811778E+01    1.4579008045038652E+01    2.4033107526349533E+00
Au    1.3366631528462365E+01    1.4569993818289866E+01    2.4075178329909432E+00
Au    1.6332073907475305E+01    1.4560136389347075E+01    2.4104616204523328E+00
Au    7.9907902736333653E-07   -1.4530690626861379E-02    4.8675083769257652E+00
Au    2.9401255303009477E+00   -1.7454848092109978E-02    4.8721433063567696E+00
Au    5.9018498031285853E+00   -2.4769798402024014E-02    4.8680029214577285E+00
Au    8.9059396080938722E+00   -9.4245244879263314E-03    4.8569545794977538E+00
Au    1.1910030194405392E+01   -2.4769469922385122E-02    4.8680019445015645E+00
Au    1.4871753805308241E+01   -1.7454379002627605E-02    4.8721443348931377E+00
Au    1.4610193590802816E+00    2.5502570364624351E+00    4.8746332554570913E+00
Au    4.3922620595128974E+00    2.5162888818914713E+00    4.8640361975924167E+00
Au    7.3592597964555475E+00    2.4755990942027912E+00    4.8566278598271611E+00
Au    1.0452620494063225E+01    2.4755995747623718E+00    4.8566280867818685E+00
Au    1.3419616456280036E+01    2.5162909768661050E+00    4.8640371969873133E+00
Au    1.6350860610798840E+01    2.5502567671558540E+00    4.8746315399876776E+00
Au    1.3978456524071334E-06    5.1323211438371343E+00    4.8694766765462028E+00
Au    2.9034392839010370E+00    5.1228937280285969E+00    4.8644663991363544E+00
Au    5.8064363656156974E+00    5.0629206105134594E+00    4.9028798190503453E+00
Au    8.9059405969824503E+00    4.9195522818188744E+00    4.7845714372093040E+00
Au    1.2005439977046054E+01    5.0629214583600177E+00    4.9028866179916806E+00
Au    1.4908438867276407E+01    5.1228935041333949E+00    4.8644660674988289E+00
Au    1.4535988540883487E+00    7.7169148903862155E+00    4.8669899196914175E+00
Au    4.3430610566214947E+00    7.7181813194678126E+00    4.8580956256532390E+00
Au    7.2323080724440745E+00    7.8067558990105397E+00    4.7989061619893532E+00
Au    1.0579571437483173E+01    7.8067558179184937E+00    4.7989110907742285E+00
Au    1.3468822120399146E+01    7.7181825420267867E+00    4.8580959760121489E+00
Au    1.6358283880106352E+01    7.7169145803388774E+00    4.8669872057132162E+00
Au    7.0099477684080974E-07    1.0287206533692508E+01    4.8610615912150168E+00
Au    2.9389566059238117E+00    1.0300719599539031E+01    4.8593819156332136E+00
Au    5.8754562163576365E+00    1.0365731441267938E+01    4.8545160684084756E+00
Au    8.9059378988893805E+00    1.0407548746930944E+01    4.9226848430481063E+00
Au    1.1936427227773864E+01    1.0365734308998363E+01    4.8545164259191349E+00
Au    1.4872925505796184E+01    1.0300721276938116E+01    4.8593833752136968E+00
Au    1.4737255478634605E+00    1.2851740480338419E+01    4.8629555704817848E+00
Au    4.4214028992134908E+00    1.2874219982516808E+01    4.8674428337954421E+00
Au    7.4003747056563745E+00    1.2900923384399139E+01    4.8566372317499011E+00
Au    1.0411505114530341E+01    1.2900923554196233E+01    4.8566360996376936E+00
Au    1.3390478492255838E+01    1.2874222685885163E+01    4.8674430227044398E+00
Au    1.6338153468486098E+01    1.2851741276732291E+01    4.8629558803710005E+00
Au    7.4210339533358454E+00    5.9675530474482334E+00    6.9411119929810141E+00
Au    1.0390822787071496E+01    5.9675822334761728E+00    6.9411300923126049E+00
Au    8.9059489394576712E+00    8.5207879146228951E+00    6.9548405408414080E+00
Au    8.9058546578192406E+00    6.7572326203952029E+00    9.1125933879177232E+00
Au    8.9048664728147902E+00    6.5267681534697992E+00    1.1713571593520184E+01
Au    8.9080029861655863E+00    8.1901889817231659E+00    1.3739850483087414E+01
Au    8.9041032143810170E+00    7.2167620815865829E+00    1.6161788941775018E+01
Au    8.9075448466972791E+00    5.7684945467935824E+00    1.8336503921495094E+01
Au    8.9052530069905664E+00    7.2310100921932046E+00    2.0502088640543505E+01
Au    8.9059113385944926E+00    6.9027921251263766E+00    2.3099694757489306E+01
Au    8.9059424070897091E+00    5.1697520030062369E+00    2.5286886954651258E+01
Au    7.4348723826318031E+00    7.7170503371186703E+00    2.5282375227992762E+01
Au    1.0377010415743449E+01    7.7170425462209638E+00    2.5282383876951933E+01
Au   -4.9598086919841085E-07    1.7055355888068917E+00    2.7417530124958830E+01
Au    2.9448195507107555E+00    1.7054605088668204E+00    2.7412757841733143E+01
Au    5.8949670213859173E+00    1.6694241906097620E+00    2.7420093499063253E+01
Au    8.9059379381762227E+00    1.6660694090006785E+00    2.7405099124364952E+01
Au    1.1916910800248830E+01    1.6694224631547536E+00    2.7420093140417890E+01
Au    1.4867061245279633E+01    1.7054565739757921E+00    2.7412758459689766E+01
Au    1.4692182481149023E+00    4.2753308524977331E+00    2.7417512412534656E+01
Au    4.4044361209032301E+00    4.2600992885847191E+00    2.7426848165548432E+01
Au    7.3577344475218185E+00    4.1764383580646056E+00    2.7389374392094627E+01
Au    1.0454142208278746E+01    4.1764398216419485E+00    2.7389369099860691E+01
Au    1.3407445159079250E+01    4.2600932108579084E+00    2.7426844431972466E+01
Au    1.6342662004271975E+01    4.2753303225824713E+00    2.7417516442657025E+01
Au    1.3804385906210782E-06    6.8593347104074240E+00    2.7415586428582724E+01
Au    2.9121220834899564E+00    6.8539246884943053E+00    2.7416996054518236E+01
Au    5.8157651808955366E+00    6.8685977281149579E+00    2.7390058869625705E+01
Au    8.9059365205590719E+00    6.8700748586470617E+00    2.7597787345073545E+01
Au    1.1996116256740493E+01    6.8685887063896871E+00    2.7390064001644188E+01
Au    1.4899758654077040E+01    6.8539246977953514E+00    2.7416996829327513E+01
Au    1.4658759406478659E+00    9.4380933183471676E+00    2.7409765834698664E+01
Au    4.3982411657198393E+00    9.4614424098968879E+00    2.7396843041054328E+01
Au    7.3463393150785370E+00    9.5438213930349871E+00    2.7389656292936820E+01
Au    1.0465533628466220E+01    9.5438317225952325E+00    2.7389661387558569E+01
Au    1.3413633231511387E+01    9.4614416046009158E+00    2.7396846920994754E+01
Au    1.6346001929230582E+01    9.4380949378255981E+00    2.7409768430770384E+01
Au   -2.6997196107687927E-08    1.2003656711157960E+01    2.7411567335585904E+01
Au    2.9458159744319166E+00    1.2013402615069614E+01    2.7411774251845127E+01
Au    5.9000915509021858E+00    1.2057319685331512E+01    2.7419920739314591E+01
Au    8.9059358320843209E+00    1.2050774885601376E+01    2.7431237240453321E+01
Au    1.1911786807899180E+01    1.2057321307135810E+01    2.7419920211718125E+01
Au    1.4866062337079811E+01    1.2013402751643616E+01    2.7411774179182981E+01
Au    1.4741301524987112E+00    1.4566122483373292E+01    2.7414057180494378E+01
Au    4.4245094057809995E+00    1.4574959220896424E+01    2.7415890672204583E+01
Au    7.4100918897099071E+00    1.4575108822316240E+01    2.7421221417137378E+01
Au    1.0401785405657128E+01    1.4575108226885151E+01    2.7421223145884841E+01
Au    1.3387369321201405E+01    1.4574958533740741E+01    2.7415891154007770E+01
Au    1.6337747659258053E+01    1.4566123221939227E+01    2.7414055024502542E+01
Au   -5.0362062148655011E-07    1.4224715899335710E-03    2.9865756160997371E+01
Au    2.9635784119754449E+00    5.1611522243431799E-03    2.9868313364073497E+01
Au    5.9357506245227354E+00   -6.2359269163536814E-03    2.9874779655746320E+01
Au    8.9059392691593668E+00    4.4438313727893104E-03    2.9866914622148361E+01
Au    1.1876127344587777E+01   -6.2365235123709901E-03    2.9874780552236473E+01
Au    1.4848299833978094E+01    5.1597235498960451E-03    2.9868314464092780E+01
Au    1.4852126214179859E+00    2.5760638815260397E+00    2.9866905201876488E+01
Au    4.4508621854500507E+00    2.5694500214732989E+00    2.9869468471898831E+01
Au    7.4156811295392204E+00    2.5700690953537770E+00    2.9857853391259962E+01
Au    1.0396197574209122E+01    2.5700696046547216E+00    2.9857849753691848E+01
Au    1.3361015892883552E+01    2.5694489214903657E+00    2.9869468023691745E+01
Au    1.6326665942102462E+01    2.5760624568220210E+00    2.9866906802516500E+01
Au    8.0376013324669797E-07    5.1486472458456145E+00    2.9869012514643146E+01
Au    2.9682317075542666E+00    5.1457510874814325E+00    2.9869286094269032E+01
Au    5.9418305833991631E+00    5.1464725921808752E+00    2.9824641438591861E+01
Au    8.9059394810297068E+00    5.1218719265609973E+00    2.9867016880096436E+01
Au    1.1870047446268851E+01    5.1464689229647504E+00    2.9824639961498793E+01
Au    1.4843645769746880E+01    5.1457510439321634E+00    2.9869286260532867E+01
Au    1.4800419466657679E+00    7.7199076216060663E+00    2.9870348988119908E+01
Au    4.4465600206251539E+00    7.7119795483821116E+00    2.9858600066184955E+01
Au    7.4026596629897616E+00    7.7250883276057047E+00    2.9871319829792039E+01
Au    1.0409219579295064E+01    7.7250882323349606E+00    2.9871319250460264E+01
Au    1.3365317982553943E+01    7.7119794124343999E+00    2.9858598690109105E+01
Au    1.6331837186625396E+01    7.7199066880720570E+00    2.9870349059888671E+01
Au    4.9347037149744350E-07    1.0289074480839771E+01    2.9867806592673240E+01
Au    2.9721393302540040E+00    1.0282422218294675E+01    2.9861652406152281E+01
Au    5.9337611909263019E+00    1.0292112431717216E+01    2.9859049807267258E+01
Au    8.9059360552290325E+00    1.0277205286099285E+01    2.9826300894633505E+01
Au    1.1878116837288877E+01    1.0292112171608640E+01    2.9859050107441501E+01
Au    1.4839740268652839E+01    1.0282423312476316E+01    2.9861653918961775E+01
Au    1.4805039614050377E+00    1.2854890575758050E+01    2.9868128015211276E+01
Au    4.4423116486767897E+00    1.2858666922744041E+01    2.9871847408317077E+01
Au    7.4183743962382271E+00    1.2852592426880175E+01    2.9871191790283824E+01
Au    1.0393502843622729E+01    1.2852591130828131E+01    2.9871191588209079E+01
Au    1.3369566209206827E+01    1.2858666847575352E+01    2.9871848032578360E+01
Au    1.6331374569577452E+01    1.2854890218783849E+01    2.9868128082840713E+01
     &END COORD
     &KIND Au
       BASIS_SET TZVP-MOLOPT-SR-GTH-q11
       ELEMENT Au
       POTENTIAL GTH-PBE-q11
       &POTENTIAL
1 0 10
0.5900000000000000E+00 1  0.1051717881000000E+02
3
0.5438473300000000E+00 2  0.5786811030000000E+01 -0.2250679660000000E+01
0.2905614950000000E+01
0.6091729800000000E+00 2  0.4284048730000000E+01 -0.4071285200000000E+01
0.4817209620000000E+01
0.4373092200000000E+00 2 -0.7403281240000000E+01  0.3010193070000000E+01
-0.3413238110000000E+01
       &END POTENTIAL
     &END KIND
     &TOPOLOGY
       COORD_FILE_NAME junction_65.xyz
       COORD_FILE_FORMAT  XYZ
       NUMBER_OF_ATOMS  193
       MULTIPLE_UNIT_CELL  1 1 1
     &END TOPOLOGY
   &END SUBSYS
   &PRINT
     &TOTAL_NUMBERS  ON
     &END TOTAL_NUMBERS
   &END PRINT
 &END FORCE_EVAL
