 # Version information for this restart file 
 # current date 2022-05-01 07:05:04.370
 # current working dir /rds/general/user/jj1921/home/junction/ortho/cell_65
 # Program compiled at                              Thu 12 Jul 13:52:12 BST 2018
 # Program compiled on                                      build-2.hpc.ic.ac.uk
 # Program compiled for                                       Linux-x86-64-intel
 # Source code revision number                                         svn:18464
 &GLOBAL
   PRINT_LEVEL  MEDIUM
   PROJECT_NAME Au_junction
   RUN_TYPE  CELL_OPT
 &END GLOBAL
 &MOTION
   &CELL_OPT
     OPTIMIZER  BFGS
     STEP_START_VAL  63
     TYPE  DIRECT_CELL_OPT
     KEEP_ANGLES  T
     KEEP_SYMMETRY  T
     CONSTRAINT  XY
   &END CELL_OPT
   &CONSTRAINT
     &FIXED_ATOMS
       COMPONENTS_TO_FIX  XYZ
       LIST  1..36
     &END FIXED_ATOMS
   &END CONSTRAINT
   &PRINT
     &TRAJECTORY  SILENT
       &EACH
         CELL_OPT  1
       &END EACH
     &END TRAJECTORY
   &END PRINT
 &END MOTION
 &FORCE_EVAL
   METHOD  QS
   STRESS_TENSOR  ANALYTICAL
   &DFT
     BASIS_SET_FILE_NAME /rds/general/user/jj1921/home/BASIS_COM_MOLOPT_GTH
     POTENTIAL_FILE_NAME /rds/general/user/jj1921/home/GTH_POTENTIALS
     &SCF
       MAX_SCF  500
       EPS_SCF     9.9999999999999995E-08
       CHOLESKY  INVERSE
       SCF_GUESS  ATOMIC
       ADDED_MOS  20
       &DIAGONALIZATION  T
         ALGORITHM  STANDARD
       &END DIAGONALIZATION
       &SMEAR  T
         METHOD  FERMI_DIRAC
         ELECTRONIC_TEMPERATURE     3.0000000000000000E+02
       &END SMEAR
       &MIXING  T
         METHOD  BROYDEN_MIXING
         ALPHA     4.0000000000000002E-01
         BETA     5.0000000000000000E-01
         NBUFFER  8
       &END MIXING
     &END SCF
     &QS
       EPS_DEFAULT     1.0000000000000000E-14
       METHOD  GPW
     &END QS
     &MGRID
       NGRIDS  4
       CUTOFF     5.0000000000000000E+02
       REL_CUTOFF     4.0000000000000000E+01
     &END MGRID
     &XC
       DENSITY_CUTOFF     1.0000000000000000E-10
       GRADIENT_CUTOFF     1.0000000000000000E-10
       TAU_CUTOFF     1.0000000000000000E-10
       &XC_FUNCTIONAL  NO_SHORTCUT
         &PBE  T
         &END PBE
       &END XC_FUNCTIONAL
     &END XC
     &KPOINTS
       SCHEME MONKHORST-PACK 4 4 1
       FULL_GRID  T
     &END KPOINTS
   &END DFT
   &SUBSYS
     &CELL
       A     1.7811878396732901E+01    0.0000000000000000E+00    0.0000000000000000E+00
       B     0.0000000000000000E+00    1.5425539180689929E+01    0.0000000000000000E+00
       C     0.0000000000000000E+00    0.0000000000000000E+00    3.3835535867790938E+01
       PERIODIC  XYZ
       MULTIPLE_UNIT_CELL  1 1 1
       SYMMETRY  ORTHORHOMBIC
     &END CELL
     &COORD
Au    1.4843231999999995E+00    8.5697439999999980E-01    0.0000000000000000E+00
Au    4.4529695999999985E+00    8.5697439999999980E-01    0.0000000000000000E+00
Au    7.4216159999999975E+00    8.5697439999999980E-01    0.0000000000000000E+00
Au    1.0390262399999999E+01    8.5697439999999980E-01    0.0000000000000000E+00
Au    1.3358908799999998E+01    8.5697439999999980E-01    0.0000000000000000E+00
Au    1.6327555199999995E+01    8.5697439999999980E-01    0.0000000000000000E+00
Au    0.0000000000000000E+00    3.4278975999999992E+00    0.0000000000000000E+00
Au    2.9686463999999990E+00    3.4278975999999992E+00    0.0000000000000000E+00
Au    5.9372927999999980E+00    3.4278975999999992E+00    0.0000000000000000E+00
Au    8.9059391999999971E+00    3.4278975999999992E+00    0.0000000000000000E+00
Au    1.1874585599999996E+01    3.4278975999999992E+00    0.0000000000000000E+00
Au    1.4843231999999995E+01    3.4278975999999992E+00    0.0000000000000000E+00
Au    1.4843231999999995E+00    5.9988207899999981E+00    0.0000000000000000E+00
Au    4.4529695999999985E+00    5.9988207899999981E+00    0.0000000000000000E+00
Au    7.4216159999999975E+00    5.9988207899999981E+00    0.0000000000000000E+00
Au    1.0390262399999999E+01    5.9988207899999981E+00    0.0000000000000000E+00
Au    1.3358908799999998E+01    5.9988207899999981E+00    0.0000000000000000E+00
Au    1.6327555199999995E+01    5.9988207899999981E+00    0.0000000000000000E+00
Au    0.0000000000000000E+00    8.5697439899999974E+00    0.0000000000000000E+00
Au    2.9686463999999990E+00    8.5697439899999974E+00    0.0000000000000000E+00
Au    5.9372927999999980E+00    8.5697439899999974E+00    0.0000000000000000E+00
Au    8.9059391999999971E+00    8.5697439899999974E+00    0.0000000000000000E+00
Au    1.1874585599999996E+01    8.5697439899999974E+00    0.0000000000000000E+00
Au    1.4843231999999995E+01    8.5697439899999974E+00    0.0000000000000000E+00
Au    1.4843231999999995E+00    1.1140667189999997E+01    0.0000000000000000E+00
Au    4.4529695999999985E+00    1.1140667189999997E+01    0.0000000000000000E+00
Au    7.4216159999999975E+00    1.1140667189999997E+01    0.0000000000000000E+00
Au    1.0390262399999999E+01    1.1140667189999997E+01    0.0000000000000000E+00
Au    1.3358908799999998E+01    1.1140667189999997E+01    0.0000000000000000E+00
Au    1.6327555199999995E+01    1.1140667189999997E+01    0.0000000000000000E+00
Au    0.0000000000000000E+00    1.3711590380000001E+01    0.0000000000000000E+00
Au    2.9686463999999990E+00    1.3711590380000001E+01    0.0000000000000000E+00
Au    5.9372927999999980E+00    1.3711590380000001E+01    0.0000000000000000E+00
Au    8.9059391999999971E+00    1.3711590380000001E+01    0.0000000000000000E+00
Au    1.1874585599999996E+01    1.3711590380000001E+01    0.0000000000000000E+00
Au    1.4843231999999995E+01    1.3711590380000001E+01    0.0000000000000000E+00
Au    8.8716894288784818E-10    1.7055244779323688E+00    2.3957456997291295E+00
Au    2.9620945494267703E+00    1.7077785914200305E+00    2.3992357562570521E+00
Au    5.9201071785581210E+00    1.7108203200655370E+00    2.4017362036235341E+00
Au    8.9059392007295717E+00    1.7398557547701461E+00    2.4137281022454546E+00
Au    1.1891771222143227E+01    1.7108203198532717E+00    2.4017362041186616E+00
Au    1.4849783850749715E+01    1.7077785911916654E+00    2.3992357570694760E+00
Au    1.4840101959439933E+00    4.2725269289779826E+00    2.3990767805344677E+00
Au    4.4493777568300938E+00    4.2808406925691145E+00    2.4311797984226553E+00
Au    7.4078132081602233E+00    4.2845280778837651E+00    2.4157030708866354E+00
Au    1.0404065192673839E+01    4.2845280762942810E+00    2.4157030695979551E+00
Au    1.3362500645650378E+01    4.2808406922705018E+00    2.4311798011847849E+00
Au    1.6327868206610464E+01    4.2725269297052861E+00    2.3990767782349938E+00
Au    4.0216666035206064E-09    6.8470506811817611E+00    2.3960986995825335E+00
Au    2.9562266471685237E+00    6.8414109135618606E+00    2.3999759899319435E+00
Au    5.9229269234689221E+00    6.8405161231156857E+00    2.4117220214842532E+00
Au    8.9059392007088043E+00    6.8574004281254517E+00    2.4597458785305202E+00
Au    1.1888951476971801E+01    6.8405161246267916E+00    2.4117220204047829E+00
Au    1.4855651753528560E+01    6.8414109146396198E+00    2.3999759888355183E+00
Au    1.4875105411084497E+00    9.4180499540025444E+00    2.4020908830127987E+00
Au    4.4667148140531934E+00    9.4110521697507306E+00    2.4100996247409201E+00
Au    7.4237410067089309E+00    9.4443394850066475E+00    2.4077927338258807E+00
Au    1.0388137395597743E+01    9.4443394855404943E+00    2.4077927349192652E+00
Au    1.3345163587714710E+01    9.4110521711701356E+00    2.4100996227428415E+00
Au    1.6324367860493140E+01    9.4180499539070421E+00    2.4020908849334379E+00
Au    9.0556619429264375E-10    1.1983132071863164E+01    2.3988719412944404E+00
Au    2.9692834715209182E+00    1.1988656130561928E+01    2.3988999175932264E+00
Au    5.9360058605018766E+00    1.2008251272470037E+01    2.4018621592157743E+00
Au    8.9059392013972918E+00    1.2015324764051083E+01    2.4250498096641357E+00
Au    1.1875872541352917E+01    1.2008251272995038E+01    2.4018621598667496E+00
Au    1.4842594929868001E+01    1.1988656131496647E+01    2.3988999178350707E+00
Au    1.4817485965938824E+00    1.4558298719608466E+01    2.4001953481403060E+00
Au    4.4461476625127121E+00    1.4564441776329412E+01    2.3951962729845664E+00
Au    7.4208751109761275E+00    1.4582886226329583E+01    2.4016655700909788E+00
Au    1.0391003290855302E+01    1.4582886226733022E+01    2.4016655686755959E+00
Au    1.3365730739339339E+01    1.4564441777070886E+01    2.3951962733196512E+00
Au    1.6330129803163498E+01    1.4558298720188429E+01    2.4001953476855817E+00
Au    3.6331786108658727E-09   -2.7163586776389356E-02    4.8500601645156793E+00
Au    2.9336629799934206E+00   -2.2228750707513265E-02    4.8505155228800048E+00
Au    5.8874571660636095E+00   -1.7880201624717960E-02    4.8522086135636826E+00
Au    8.9059392007736360E+00   -3.2187702940886655E-04    4.8424170972135396E+00
Au    1.1924421237725127E+01   -1.7880203519645921E-02    4.8522086135982283E+00
Au    1.4878215423792621E+01   -2.2228748317684094E-02    4.8505155263107502E+00
Au    1.4630886566099468E+00    2.5390113818510813E+00    4.8530832206354377E+00
Au    4.3915085607212010E+00    2.5236994562315114E+00    4.8547714430367188E+00
Au    7.3573898715281736E+00    2.4916624807604415E+00    4.8493950860959352E+00
Au    1.0454488533939381E+01    2.4916624794130731E+00    4.8493950867060658E+00
Au    1.3420369841497006E+01    2.5236994571815545E+00    4.8547714434452605E+00
Au    1.6348789746887135E+01    2.5390113814175845E+00    4.8530832208621977E+00
Au    1.4774949500734546E-09    5.1180405238431286E+00    4.8480868987148096E+00
Au    2.9090870629961563E+00    5.1112347123555848E+00    4.8551574181253701E+00
Au    5.8294701829755509E+00    5.0762813186936873E+00    4.9303167602898839E+00
Au    8.9059392022352597E+00    4.9404996330663185E+00    4.7979781850994945E+00
Au    1.1982408217166352E+01    5.0762813212409421E+00    4.9303167556370351E+00
Au    1.4902791340675362E+01    5.1112347121742365E+00    4.8551574127203798E+00
Au    1.4499378602207909E+00    7.7051985540532950E+00    4.8491539462636357E+00
Au    4.3465884133720891E+00    7.7021103642665150E+00    4.8495946377048202E+00
Au    7.2332090442493628E+00    7.8248870374043706E+00    4.7797966659103590E+00
Au    1.0578669356932844E+01    7.8248870392554544E+00    4.7797966665926896E+00
Au    1.3465289986970399E+01    7.7021103679486727E+00    4.8495946396834864E+00
Au    1.6361940541754890E+01    7.7051985504654006E+00    4.8491539457695518E+00
Au    4.7205687318485385E-09    1.0275908963269467E+01    4.8399566129977529E+00
Au    2.9378921151749910E+00    1.0289861995521646E+01    4.8418720890064373E+00
Au    5.8757790601850655E+00    1.0372594022408009E+01    4.8461167279954847E+00
Au    8.9059392019654435E+00    1.0421973251764996E+01    4.8957200549914948E+00
Au    1.1936099344808380E+01    1.0372594022064304E+01    4.8461167299962513E+00
Au    1.4873986287013935E+01    1.0289861997474855E+01    4.8418720902237125E+00
Au    1.4716071722524251E+00    1.2843490815700822E+01    4.8446630165105082E+00
Au    4.4091534870832367E+00    1.2873564063308692E+01    4.8502975182508967E+00
Au    7.3917088767546408E+00    1.2916825964233645E+01    4.8452981825412236E+00
Au    1.0420169524606520E+01    1.2916825966076029E+01    4.8452981819660250E+00
Au    1.3402724915402830E+01    1.2873564063980357E+01    4.8502975188357587E+00
Au    1.6340271230984335E+01    1.2843490816330384E+01    4.8446630184059680E+00
Au    7.4484000483194190E+00    6.0489633579474482E+00    6.9685028932972992E+00
Au    1.0363478357291214E+01    6.0489633579646114E+00    6.9685028942543505E+00
Au    8.9059392015116057E+00    8.5550989251688883E+00    6.9525683330425503E+00
Au    8.9059391986166858E+00    6.8555615446406213E+00    9.1870251343569027E+00
Au    8.9059390695814713E+00    6.3613311101636425E+00    1.1837572169743872E+01
Au    8.9059394455321090E+00    7.3986982271440551E+00    1.4275027373755828E+01
Au    8.9059388854988768E+00    6.9626991365752557E+00    1.6899882425963725E+01
Au    8.9059393975956311E+00    6.2454718300285732E+00    1.9447776307021339E+01
Au    8.9059391557900831E+00    7.2903405278136031E+00    2.1889907733696766E+01
Au    8.9059392028081987E+00    6.8719087030088186E+00    2.4542979705294858E+01
Au    8.9059391939780905E+00    5.1712436292166428E+00    2.6813190927416457E+01
Au    7.4550225559338452E+00    7.6766637372632918E+00    2.6793255786174779E+01
Au    1.0356855845601219E+01    7.6766637330696090E+00    2.6793255789409606E+01
Au    1.0084849375330522E-09    1.7115375905049024E+00    2.8998485076101545E+01
Au    2.9397112961989840E+00    1.7091691930868864E+00    2.8991203713913734E+01
Au    5.8850946359042036E+00    1.6717432297888732E+00    2.8989201182015528E+01
Au    8.9059392042401555E+00    1.6643693576159828E+00    2.8970811483093964E+01
Au    1.1926783762514168E+01    1.6717432321831189E+00    2.8989201183471856E+01
Au    1.4872167103374823E+01    1.7091691930878152E+00    2.8991203716377989E+01
Au    1.4694489406568003E+00    4.2813961124558588E+00    2.8994814325827889E+01
Au    4.4039139584108637E+00    4.2641177329995443E+00    2.8993625239796447E+01
Au    7.3725420828028074E+00    4.1844022968204015E+00    2.8940433010027441E+01
Au    1.0439336304661126E+01    4.1844023007255471E+00    2.8940433014512063E+01
Au    1.3407964442687359E+01    4.2641177292591763E+00    2.8993625238173586E+01
Au    1.6342429455438378E+01    4.2813961170167172E+00    2.8994814323900837E+01
Au    5.0924370066827925E-10    6.8664034217895802E+00    2.8995318187572323E+01
Au    2.9119936111085396E+00    6.8599705841452074E+00    2.8988272808826046E+01
Au    5.8231733295209436E+00    6.8826199147098190E+00    2.8926529979539069E+01
Au    8.9059392004719413E+00    6.8649142913288168E+00    2.9156490554627794E+01
Au    1.1988705070254301E+01    6.8826199091764053E+00    2.8926529982978376E+01
Au    1.4899884785729126E+01    6.8599705846037580E+00    2.8988272808000019E+01
Au    1.4638085566438668E+00    9.4486544845407892E+00    2.8990585661654126E+01
Au    4.3922330162752479E+00    9.4658883904035971E+00    2.8961150613480626E+01
Au    7.3417836043554683E+00    9.5107281399892383E+00    2.8919732751721835E+01
Au    1.0470094807705502E+01    9.5107281413456946E+00    2.8919732746851686E+01
Au    1.3419645383573807E+01    9.4658883869375483E+00    2.8961150615759980E+01
Au    1.6348069847779584E+01    9.4486544903186491E+00    2.8990585663182731E+01
Au    1.4409362889478587E-09    1.2015229975907317E+01    2.8995446857823101E+01
Au    2.9436268708687963E+00    1.2016379891902274E+01    2.8988722933985354E+01
Au    5.9029591320114188E+00    1.2049420419418379E+01    2.8987838952681010E+01
Au    8.9059391990498611E+00    1.2037658791123196E+01    2.8993896242705880E+01
Au    1.1908919269819263E+01    1.2049420422996635E+01    2.8987838952254897E+01
Au    1.4868251530645626E+01    1.2016379890191068E+01    2.8988722935537915E+01
Au    1.4704725039544302E+00    1.4571530370209283E+01    2.8997870839086566E+01
Au    4.4174501818521978E+00    1.4570443741438771E+01    2.8992887204633412E+01
Au    7.4063670073662164E+00    1.4572773079509306E+01    2.8989956971389983E+01
Au    1.0405511395942646E+01    1.4572773075701630E+01    2.8989956971048688E+01
Au    1.3394428218921011E+01    1.4570443740284281E+01    2.8992887206075867E+01
Au    1.6341405896354861E+01    1.4571530373434227E+01    2.8997870840891252E+01
Au    3.3361037626941627E-09    4.0274465526914261E-03    3.1440847402571183E+01
Au    2.9668389937597466E+00    7.1463568722191810E-03    3.1437331575330898E+01
Au    5.9359756683965941E+00   -3.4773087429831677E-03    3.1436051366848382E+01
Au    8.9059392008197698E+00    9.2415057163388950E-03    3.1422950648538681E+01
Au    1.1875902731496650E+01   -3.4773081431902770E-03    3.1436051366996075E+01
Au    1.4845039407233543E+01    7.1463557515978951E-03    3.1437331574463169E+01
Au    1.4844526008615744E+00    2.5773770427552707E+00    3.1435588829105953E+01
Au    4.4581594464756220E+00    2.5775423204234773E+00    3.1437363562908484E+01
Au    7.4096055433139396E+00    2.5689072466739153E+00    3.1416888446226888E+01
Au    1.0402272857581886E+01    2.5689072472307815E+00    3.1416888447407072E+01
Au    1.3353718954370777E+01    2.5775423228700887E+00    3.1437363561329917E+01
Au    1.6327425796899540E+01    2.5773770457401364E+00    3.1435588827512749E+01
Au    1.1514284042974387E-09    5.1477469761009269E+00    3.1435790919365974E+01
Au    2.9726164955442456E+00    5.1495064554789280E+00    3.1437199832147442E+01
Au    5.9416936637896089E+00    5.1523186640160317E+00    3.1385857689776937E+01
Au    8.9059391987205085E+00    5.1299558129875678E+00    3.1432074401850738E+01
Au    1.1870184736116114E+01    5.1523186636629328E+00    3.1385857688782838E+01
Au    1.4839261902595464E+01    5.1495064567650806E+00    3.1437199836939694E+01
Au    1.4858126884541727E+00    7.7210239078774432E+00    3.1436155118383841E+01
Au    4.4443525017058008E+00    7.7115943770101225E+00    3.1416203678901091E+01
Au    7.4071794755641971E+00    7.7220239056017155E+00    3.1430745942781602E+01
Au    1.0404698924036373E+01    7.7220239061901506E+00    3.1430745941852091E+01
Au    1.3367525896851605E+01    7.7115943749083629E+00    3.1416203679348833E+01
Au    1.6326065712147823E+01    7.7210239074029774E+00    3.1436155113361046E+01
Au    2.4021908561711125E-09    1.0291411837166752E+01    3.1439171484682809E+01
Au    2.9791443676940506E+00    1.0280140688136626E+01    3.1431207796076027E+01
Au    5.9385963186286848E+00    1.0292545251602450E+01    3.1415859851212986E+01
Au    8.9059392005006934E+00    1.0270228045663709E+01    3.1376737961953367E+01
Au    1.1873282082035468E+01    1.0292545252163267E+01    3.1415859851727792E+01
Au    1.4832734031978394E+01    1.0280140687496990E+01    3.1431207794617244E+01
Au    1.4838547293363300E+00    1.2856887398676719E+01    3.1439933829254120E+01
Au    4.4481140644222101E+00    1.2851693644839434E+01    3.1436172372088372E+01
Au    7.4228863946482848E+00    1.2846102668082970E+01    3.1435186507375207E+01
Au    1.0388992003515169E+01    1.2846102666184395E+01    3.1435186507798086E+01
Au    1.3363764334632224E+01    1.2851693643549996E+01    3.1436172376362627E+01
Au    1.6328023671776773E+01    1.2856887399901202E+01    3.1439933829773988E+01
     &END COORD
     &KIND Au
       BASIS_SET TZVP-MOLOPT-SR-GTH-q11
       ELEMENT Au
       POTENTIAL GTH-PBE-q11
       &POTENTIAL
1 0 10
0.5900000000000000E+00 1  0.1051717881000000E+02
3
0.5438473300000000E+00 2  0.5786811030000000E+01 -0.2250679660000000E+01
0.2905614950000000E+01
0.6091729800000000E+00 2  0.4284048730000000E+01 -0.4071285200000000E+01
0.4817209620000000E+01
0.4373092200000000E+00 2 -0.7403281240000000E+01  0.3010193070000000E+01
-0.3413238110000000E+01
       &END POTENTIAL
     &END KIND
     &TOPOLOGY
       COORD_FILE_NAME junction_65.xyz
       COORD_FILE_FORMAT  XYZ
       NUMBER_OF_ATOMS  193
       MULTIPLE_UNIT_CELL  1 1 1
     &END TOPOLOGY
   &END SUBSYS
   &PRINT
     &TOTAL_NUMBERS  ON
     &END TOTAL_NUMBERS
   &END PRINT
 &END FORCE_EVAL
