 # Version information for this restart file 
 # current date 2022-05-02 21:48:30.085
 # current working dir /rds/general/user/jj1921/home/junction/ortho/cell_65
 # Program compiled at                              Thu 12 Jul 13:52:12 BST 2018
 # Program compiled on                                      build-2.hpc.ic.ac.uk
 # Program compiled for                                       Linux-x86-64-intel
 # Source code revision number                                         svn:18464
 &GLOBAL
   PRINT_LEVEL  MEDIUM
   PROJECT_NAME Au_junction
   RUN_TYPE  CELL_OPT
 &END GLOBAL
 &MOTION
   &CELL_OPT
     OPTIMIZER  BFGS
     STEP_START_VAL  91
     TYPE  DIRECT_CELL_OPT
     KEEP_ANGLES  T
     KEEP_SYMMETRY  T
     CONSTRAINT  XY
   &END CELL_OPT
   &CONSTRAINT
     &FIXED_ATOMS
       COMPONENTS_TO_FIX  XYZ
       LIST  1..36
     &END FIXED_ATOMS
   &END CONSTRAINT
   &PRINT
     &TRAJECTORY  SILENT
       &EACH
         CELL_OPT  1
       &END EACH
     &END TRAJECTORY
   &END PRINT
 &END MOTION
 &FORCE_EVAL
   METHOD  QS
   STRESS_TENSOR  ANALYTICAL
   &DFT
     BASIS_SET_FILE_NAME /rds/general/user/jj1921/home/BASIS_COM_MOLOPT_GTH
     POTENTIAL_FILE_NAME /rds/general/user/jj1921/home/GTH_POTENTIALS
     &SCF
       MAX_SCF  500
       EPS_SCF     9.9999999999999995E-08
       CHOLESKY  INVERSE
       SCF_GUESS  ATOMIC
       ADDED_MOS  20
       &DIAGONALIZATION  T
         ALGORITHM  STANDARD
       &END DIAGONALIZATION
       &SMEAR  T
         METHOD  FERMI_DIRAC
         ELECTRONIC_TEMPERATURE     3.0000000000000000E+02
       &END SMEAR
       &MIXING  T
         METHOD  BROYDEN_MIXING
         ALPHA     4.0000000000000002E-01
         BETA     5.0000000000000000E-01
         NBUFFER  8
       &END MIXING
     &END SCF
     &QS
       EPS_DEFAULT     1.0000000000000000E-14
       METHOD  GPW
     &END QS
     &MGRID
       NGRIDS  4
       CUTOFF     5.0000000000000000E+02
       REL_CUTOFF     4.0000000000000000E+01
     &END MGRID
     &XC
       DENSITY_CUTOFF     1.0000000000000000E-10
       GRADIENT_CUTOFF     1.0000000000000000E-10
       TAU_CUTOFF     1.0000000000000000E-10
       &XC_FUNCTIONAL  NO_SHORTCUT
         &PBE  T
         &END PBE
       &END XC_FUNCTIONAL
     &END XC
     &KPOINTS
       SCHEME MONKHORST-PACK 4 4 1
       FULL_GRID  T
     &END KPOINTS
   &END DFT
   &SUBSYS
     &CELL
       A     1.7811878396732904E+01    0.0000000000000000E+00    0.0000000000000000E+00
       B     0.0000000000000000E+00    1.5425539180689926E+01    0.0000000000000000E+00
       C     0.0000000000000000E+00    0.0000000000000000E+00    3.3030936198038383E+01
       PERIODIC  XYZ
       MULTIPLE_UNIT_CELL  1 1 1
       SYMMETRY  ORTHORHOMBIC
     &END CELL
     &COORD
Au    1.4843231999999993E+00    8.5697439999999980E-01    0.0000000000000000E+00
Au    4.4529695999999976E+00    8.5697439999999980E-01    0.0000000000000000E+00
Au    7.4216159999999967E+00    8.5697439999999980E-01    0.0000000000000000E+00
Au    1.0390262399999997E+01    8.5697439999999980E-01    0.0000000000000000E+00
Au    1.3358908799999995E+01    8.5697439999999980E-01    0.0000000000000000E+00
Au    1.6327555199999992E+01    8.5697439999999980E-01    0.0000000000000000E+00
Au    0.0000000000000000E+00    3.4278975999999992E+00    0.0000000000000000E+00
Au    2.9686463999999986E+00    3.4278975999999992E+00    0.0000000000000000E+00
Au    5.9372927999999972E+00    3.4278975999999992E+00    0.0000000000000000E+00
Au    8.9059391999999953E+00    3.4278975999999992E+00    0.0000000000000000E+00
Au    1.1874585599999994E+01    3.4278975999999992E+00    0.0000000000000000E+00
Au    1.4843231999999993E+01    3.4278975999999992E+00    0.0000000000000000E+00
Au    1.4843231999999993E+00    5.9988207899999981E+00    0.0000000000000000E+00
Au    4.4529695999999976E+00    5.9988207899999981E+00    0.0000000000000000E+00
Au    7.4216159999999967E+00    5.9988207899999981E+00    0.0000000000000000E+00
Au    1.0390262399999997E+01    5.9988207899999981E+00    0.0000000000000000E+00
Au    1.3358908799999995E+01    5.9988207899999981E+00    0.0000000000000000E+00
Au    1.6327555199999992E+01    5.9988207899999981E+00    0.0000000000000000E+00
Au    0.0000000000000000E+00    8.5697439899999992E+00    0.0000000000000000E+00
Au    2.9686463999999986E+00    8.5697439899999992E+00    0.0000000000000000E+00
Au    5.9372927999999972E+00    8.5697439899999992E+00    0.0000000000000000E+00
Au    8.9059391999999953E+00    8.5697439899999992E+00    0.0000000000000000E+00
Au    1.1874585599999994E+01    8.5697439899999992E+00    0.0000000000000000E+00
Au    1.4843231999999993E+01    8.5697439899999992E+00    0.0000000000000000E+00
Au    1.4843231999999993E+00    1.1140667189999997E+01    0.0000000000000000E+00
Au    4.4529695999999976E+00    1.1140667189999997E+01    0.0000000000000000E+00
Au    7.4216159999999967E+00    1.1140667189999997E+01    0.0000000000000000E+00
Au    1.0390262399999997E+01    1.1140667189999997E+01    0.0000000000000000E+00
Au    1.3358908799999995E+01    1.1140667189999997E+01    0.0000000000000000E+00
Au    1.6327555199999992E+01    1.1140667189999997E+01    0.0000000000000000E+00
Au    0.0000000000000000E+00    1.3711590380000002E+01    0.0000000000000000E+00
Au    2.9686463999999986E+00    1.3711590380000002E+01    0.0000000000000000E+00
Au    5.9372927999999972E+00    1.3711590380000002E+01    0.0000000000000000E+00
Au    8.9059391999999953E+00    1.3711590380000002E+01    0.0000000000000000E+00
Au    1.1874585599999994E+01    1.3711590380000002E+01    0.0000000000000000E+00
Au    1.4843231999999993E+01    1.3711590380000002E+01    0.0000000000000000E+00
Au    2.3490714333582371E-09    1.7110315057701444E+00    2.4036888217818397E+00
Au    2.9638972897072486E+00    1.7157889167029008E+00    2.4005956659204504E+00
Au    5.9285658514266739E+00    1.7115338121801529E+00    2.4026981054017109E+00
Au    8.9059391994038375E+00    1.7309590015568816E+00    2.4144542210093647E+00
Au    1.1883312548743094E+01    1.7115338117022572E+00    2.4026981046199949E+00
Au    1.4847981111068268E+01    1.7157889158001620E+00    2.4005956659861671E+00
Au    1.4841520883149006E+00    4.2802132770081354E+00    2.3998061554689674E+00
Au    4.4607851345003429E+00    4.2905593638818802E+00    2.4294074713781240E+00
Au    7.4128231603091921E+00    4.2887429621201045E+00    2.4231863684803021E+00
Au    1.0399055237506358E+01    4.2887429616757347E+00    2.4231863722413216E+00
Au    1.3351093269716529E+01    4.2905593624671221E+00    2.4294074654567313E+00
Au    1.6327726313930292E+01    4.2802132774944779E+00    2.3998061558772124E+00
Au    1.6652221484941521E-09    6.8499286757383029E+00    2.3989691704627600E+00
Au    2.9649301377020860E+00    6.8489916597563614E+00    2.4001755434109886E+00
Au    5.9370999914597196E+00    6.8472353230952372E+00    2.4253321912694790E+00
Au    8.9059392009316571E+00    6.8563027280717082E+00    2.4761297053358691E+00
Au    1.1874778407442877E+01    6.8472353255488398E+00    2.4253321936731025E+00
Au    1.4846948262100691E+01    6.8489916608605865E+00    2.4001755450252746E+00
Au    1.4878691252905105E+00    9.4245175862961013E+00    2.4026721428895965E+00
Au    4.4653767977673215E+00    9.4187357349696335E+00    2.4104679800973798E+00
Au    7.4286107925735783E+00    9.4320772688069177E+00    2.4262680302067987E+00
Au    1.0383267609542459E+01    9.4320772692492501E+00    2.4262680295999894E+00
Au    1.3346501604484846E+01    9.4187357360094914E+00    2.4104679818371983E+00
Au    1.6324009275590619E+01    9.4245175860115111E+00    2.4026721424827868E+00
Au    1.6917380854296395E-09    1.1993025221975156E+01    2.4069860341638423E+00
Au    2.9707887211232387E+00    1.1994374578076592E+01    2.4017120426062348E+00
Au    5.9418207222567130E+00    1.2002339307691560E+01    2.4012854867051416E+00
Au    8.9059392017534424E+00    1.1986211381813854E+01    2.4347476820560239E+00
Au    1.1870057680363422E+01    1.2002339306957472E+01    2.4012854876313621E+00
Au    1.4841089680479095E+01    1.1994374578780755E+01    2.4017120417221975E+00
Au    1.4817868461492274E+00    1.4566896329205887E+01    2.4043877594483778E+00
Au    4.4474526292646859E+00    1.4569267114122418E+01    2.4006841474448604E+00
Au    7.4251830640040675E+00    1.4572890555190083E+01    2.4001556494684095E+00
Au    1.0386695337056191E+01    1.4572890555389069E+01    2.4001556489797604E+00
Au    1.3364425771771396E+01    1.4569267114747639E+01    2.4006841471155882E+00
Au    1.6330091555152634E+01    1.4566896328708824E+01    2.4043877587009153E+00
Au    3.2398909244137229E-09   -6.8625979988099946E-03    4.8543083481669065E+00
Au    2.9453478472995993E+00   -1.0403274921939848E-02    4.8525261954129144E+00
Au    5.9038600122633271E+00   -2.4345214221556367E-02    4.8545744803223778E+00
Au    8.9059392014192262E+00   -1.1734428093452716E-02    4.8501961358227064E+00
Au    1.1908018389382171E+01   -2.4345213372134845E-02    4.8545744795525838E+00
Au    1.4866530556711906E+01   -1.0403275669218604E-02    4.8525261966054662E+00
Au    1.4655062291956542E+00    2.5555231964385134E+00    4.8562795885080350E+00
Au    4.4018096278963128E+00    2.5301426877755939E+00    4.8548810401826010E+00
Au    7.3677330472020301E+00    2.4816376320482028E+00    4.8531421738229561E+00
Au    1.0444145353584538E+01    2.4816376339625790E+00    4.8531421752897170E+00
Au    1.3410068774761157E+01    2.5301426854794320E+00    4.8548810414132184E+00
Au    1.6346372173145387E+01    2.5555231946952501E+00    4.8562795867018274E+00
Au    3.2551166089650256E-09    5.1310728267642052E+00    4.8500203215170892E+00
Au    2.9138339934836788E+00    5.1254361414170493E+00    4.8553172517731724E+00
Au    5.8247256577022961E+00    5.0736362542251765E+00    4.9204277059250252E+00
Au    8.9059391967425476E+00    4.9413951765490438E+00    4.7975096533972765E+00
Au    1.1987152747596014E+01    5.0736362491238207E+00    4.9204276828566273E+00
Au    1.4898044409743552E+01    5.1254361418314112E+00    4.8553172499572828E+00
Au    1.4532077975167619E+00    7.7150188979478775E+00    4.8522054504965366E+00
Au    4.3504190394934961E+00    7.7176312025726101E+00    4.8507581478910993E+00
Au    7.2480811532161260E+00    7.8090659602779073E+00    4.8066625698588208E+00
Au    1.0563797246650642E+01    7.8090659641142297E+00    4.8066625726964771E+00
Au    1.3461459362164772E+01    7.7176312061311139E+00    4.8507581502430908E+00
Au    1.6358670603740048E+01    7.7150188984254706E+00    4.8522054505657302E+00
Au    2.6663311609442089E-09    1.0285621975171420E+01    4.8439431518121623E+00
Au    2.9413191314180764E+00    1.0299819471386344E+01    4.8455851979965567E+00
Au    5.8770811926973909E+00    1.0364368334826805E+01    4.8531787882543798E+00
Au    8.9059392002931421E+00    1.0403476236245318E+01    4.9299903649091874E+00
Au    1.1934797213365961E+01    1.0364368337971305E+01    4.8531787903443355E+00
Au    1.4870559272986766E+01    1.0299819473911507E+01    4.8455852001680917E+00
Au    1.4749932594395225E+00    1.2855681979324974E+01    4.8486734333358310E+00
Au    4.4208463963980984E+00    1.2876204645560696E+01    4.8541890423269543E+00
Au    7.4029669733413890E+00    1.2897461001784096E+01    4.8530415380526337E+00
Au    1.0408911430074927E+01    1.2897461002803167E+01    4.8530415378885037E+00
Au    1.3391032008266665E+01    1.2876204648882608E+01    4.8541890416862019E+00
Au    1.6336885143035818E+01    1.2855681980185535E+01    4.8486734338725972E+00
Au    7.4358403950055907E+00    5.9981095592934199E+00    6.9764518980937034E+00
Au    1.0376038025065691E+01    5.9981095653945182E+00    6.9764518889685068E+00
Au    8.9059392120003569E+00    8.5272160646925244E+00    6.9908638948431161E+00
Au    8.9059392181474024E+00    6.7730638090655368E+00    9.1807657799745055E+00
Au    8.9059377717885724E+00    6.2321574903453056E+00    1.1759201053527677E+01
Au    8.9059428226996999E+00    7.5921166596152778E+00    1.4007362483487045E+01
Au    8.9059348254990542E+00    7.1312969221804483E+00    1.6587365378495932E+01
Au    8.9059420096017572E+00    6.0045355851805482E+00    1.8968307303675896E+01
Au    8.9059384275805922E+00    7.3442122679325363E+00    2.1200558330106592E+01
Au    8.9059391961697312E+00    6.8980894238295063E+00    2.3811512262453949E+01
Au    8.9059392016134602E+00    5.1737101048650151E+00    2.6025235564923047E+01
Au    7.4483125333066225E+00    7.7062250408616277E+00    2.6018327803571911E+01
Au    1.0363565882138634E+01    7.7062250391877134E+00    2.6018327824236074E+01
Au    2.3731059081029263E-09    1.7113914704660942E+00    2.8184857246424226E+01
Au    2.9467014866129078E+00    1.7084256912080893E+00    2.8178887155942572E+01
Au    5.8958037954001394E+00    1.6748467003989240E+00    2.8179512776922504E+01
Au    8.9059392018820063E+00    1.6652732019888044E+00    2.8161939817802068E+01
Au    1.1916074603852831E+01    1.6748467028428820E+00    2.8179512777262314E+01
Au    1.4865176915478951E+01    1.7084256878641426E+00    2.8178887156237138E+01
Au    1.4713977065458801E+00    4.2789926156609379E+00    2.8182667782595015E+01
Au    4.4110695241633886E+00    4.2651330912454659E+00    2.8191294682816718E+01
Au    7.3645119456007242E+00    4.1824108910226609E+00    2.8143436932018446E+01
Au    1.0447366445734982E+01    4.1824108959859245E+00    2.8143436928911608E+01
Au    1.3400808879905245E+01    4.2651330851266520E+00    2.8191294681166394E+01
Au    1.6340480693860240E+01    4.2789926191052681E+00    2.8182667784996330E+01
Au    3.8019282910922891E-09    6.8615855058874713E+00    2.8182395915997795E+01
Au    2.9166909260241085E+00    6.8546346656348991E+00    2.8181986745148890E+01
Au    5.8217551085579311E+00    6.8711018971231210E+00    2.8137930728510433E+01
Au    8.9059391965578296E+00    6.8648270174397812E+00    2.8352800077901954E+01
Au    1.1990123297488710E+01    6.8711018872485168E+00    2.8137930735498053E+01
Au    1.4895187476619553E+01    6.8546346640467757E+00    2.8181986745725180E+01
Au    1.4652626487088567E+00    9.4391844169621155E+00    2.8177954167477917E+01
Au    4.3983725766807611E+00    9.4605743920967402E+00    2.8159368461382421E+01
Au    7.3482660114402343E+00    9.5290601024203223E+00    2.8140870254184335E+01
Au    1.0463612393201661E+01    9.5290601178623984E+00    2.8140870265149200E+01
Au    1.3413505821013668E+01    9.4605743885561768E+00    2.8159368464644785E+01
Au    1.6346615752019211E+01    9.4391844196218013E+00    2.8177954167998390E+01
Au    1.7631022514322543E-09    1.2007372245377482E+01    2.8177360646644985E+01
Au    2.9476915820436669E+00    1.2013652526773777E+01    2.8177913481069851E+01
Au    5.9074600374482893E+00    1.2047810678702414E+01    2.8183176997174925E+01
Au    8.9059391952093456E+00    1.2044018050848708E+01    2.8195426917786936E+01
Au    1.1904418363879214E+01    1.2047810685297382E+01    2.8183176996486146E+01
Au    1.4864186817946026E+01    1.2013652526060538E+01    2.8177913480719258E+01
Au    1.4757596235805235E+00    1.4568989840931510E+01    2.8182082057384974E+01
Au    4.4275022675036819E+00    1.4571762004726576E+01    2.8179233865337750E+01
Au    7.4097098358595650E+00    1.4573658604630319E+01    2.8179287497713464E+01
Au    1.0402168564183963E+01    1.4573658602094927E+01    2.8179287498191005E+01
Au    1.3384376132632227E+01    1.4571762005638515E+01    2.8179233865037354E+01
Au    1.6336118776859397E+01    1.4568989843871455E+01    2.8182082056006763E+01
Au    1.5998959466001264E-09    1.0091938251552506E-03    3.0626385147735004E+01
Au    2.9666524065991027E+00    4.8434676201204625E-03    3.0626848321004747E+01
Au    5.9389021676200775E+00   -4.3930805897717503E-03    3.0630005088624191E+01
Au    8.9059392008621927E+00    1.0763280042646388E-02    3.0621076396284664E+01
Au    1.1872976232873274E+01   -4.3930824364030053E-03    3.0630005089008723E+01
Au    1.4845225992662380E+01    4.8434686808851305E-03    3.0626848321328072E+01
Au    1.4841081419668818E+00    2.5760955000162360E+00    3.0625958938334819E+01
Au    4.4563286709585519E+00    2.5722095046764659E+00    3.0627773351220210E+01
Au    7.4137959728929168E+00    2.5732963887724463E+00    3.0612157473020527E+01
Au    1.0398082427487875E+01    2.5732963906207260E+00    3.0612157470994557E+01
Au    1.3355549728761387E+01    2.5722095044367053E+00    3.0627773351545208E+01
Au    1.6327770259229140E+01    2.5760954990762586E+00    3.0625958937163237E+01
Au    2.1970826041005494E-09    5.1455539752756376E+00    3.0629908169923624E+01
Au    2.9688879943749011E+00    5.1458005797438444E+00    3.0628733578284844E+01
Au    5.9450045909304272E+00    5.1503514806702091E+00    3.0578128833872622E+01
Au    8.9059391988702838E+00    5.1243232067285485E+00    3.0625356891503110E+01
Au    1.1866873809012910E+01    5.1503514770416761E+00    3.0578128829164182E+01
Au    1.4842990406684242E+01    5.1458005809013541E+00    3.0628733582469351E+01
Au    1.4820463328676206E+00    7.7187065534929573E+00    3.0630101116344200E+01
Au    4.4498414039578416E+00    7.7092265646768308E+00    3.0614570109941216E+01
Au    7.4057121153702861E+00    7.7236994371315912E+00    3.0625886337031652E+01
Au    1.0406166285579321E+01    7.7236994370864318E+00    3.0625886337004808E+01
Au    1.3362036994889019E+01    7.7092265640715913E+00    3.0614570108889591E+01
Au    1.6329832068476744E+01    7.7187065532808834E+00    3.0630101113925150E+01
Au    2.5068359252226029E-09    1.0288184050143267E+01    3.0628715050501352E+01
Au    2.9745599159679181E+00    1.0278220017546541E+01    3.0622417628235191E+01
Au    5.9384360179135136E+00    1.0289745145265346E+01    3.0615325689472748E+01
Au    8.9059391970685216E+00    1.0273848543196898E+01    3.0578912378704427E+01
Au    1.1873442383379535E+01    1.0289745146069386E+01    3.0615325692092757E+01
Au    1.4837318485566792E+01    1.0278220018896095E+01    3.0622417629197432E+01
Au    1.4831476942379842E+00    1.2854922245250707E+01    3.0627460823099355E+01
Au    4.4444183716307961E+00    1.2854857632799151E+01    3.0628863343717814E+01
Au    7.4211857829694283E+00    1.2852795945009634E+01    3.0629758014415856E+01
Au    1.0390692614749593E+01    1.2852795944923177E+01    3.0629758014931610E+01
Au    1.3367460028154875E+01    1.2854857632214229E+01    3.0628863344496292E+01
Au    1.6328730704759433E+01    1.2854922244938338E+01    3.0627460821315275E+01
     &END COORD
     &KIND Au
       BASIS_SET TZVP-MOLOPT-SR-GTH-q11
       ELEMENT Au
       POTENTIAL GTH-PBE-q11
       &POTENTIAL
1 0 10
0.5900000000000000E+00 1  0.1051717881000000E+02
3
0.5438473300000000E+00 2  0.5786811030000000E+01 -0.2250679660000000E+01
0.2905614950000000E+01
0.6091729800000000E+00 2  0.4284048730000000E+01 -0.4071285200000000E+01
0.4817209620000000E+01
0.4373092200000000E+00 2 -0.7403281240000000E+01  0.3010193070000000E+01
-0.3413238110000000E+01
       &END POTENTIAL
     &END KIND
     &TOPOLOGY
       COORD_FILE_NAME junction_65.xyz
       COORD_FILE_FORMAT  XYZ
       NUMBER_OF_ATOMS  193
       MULTIPLE_UNIT_CELL  1 1 1
     &END TOPOLOGY
   &END SUBSYS
   &PRINT
     &TOTAL_NUMBERS  ON
     &END TOTAL_NUMBERS
   &END PRINT
 &END FORCE_EVAL
