 # Version information for this restart file 
 # current date 2022-04-26 23:30:37.108
 # current working dir /rds/general/user/jj1921/home/junction/ortho/cell_65
 # Program compiled at                              Thu 12 Jul 13:52:12 BST 2018
 # Program compiled on                                      build-2.hpc.ic.ac.uk
 # Program compiled for                                       Linux-x86-64-intel
 # Source code revision number                                         svn:18464
 &GLOBAL
   PRINT_LEVEL  MEDIUM
   PROJECT_NAME Au_junction
   RUN_TYPE  CELL_OPT
 &END GLOBAL
 &MOTION
   &CELL_OPT
     OPTIMIZER  BFGS
     STEP_START_VAL  19
     TYPE  DIRECT_CELL_OPT
     KEEP_ANGLES  T
     KEEP_SYMMETRY  T
     CONSTRAINT  XY
   &END CELL_OPT
   &CONSTRAINT
     &FIXED_ATOMS
       COMPONENTS_TO_FIX  XYZ
       LIST  1..36
     &END FIXED_ATOMS
   &END CONSTRAINT
   &PRINT
     &TRAJECTORY  SILENT
       &EACH
         CELL_OPT  1
       &END EACH
     &END TRAJECTORY
   &END PRINT
 &END MOTION
 &FORCE_EVAL
   METHOD  QS
   STRESS_TENSOR  ANALYTICAL
   &DFT
     BASIS_SET_FILE_NAME /rds/general/user/jj1921/home/BASIS_COM_MOLOPT_GTH
     POTENTIAL_FILE_NAME /rds/general/user/jj1921/home/GTH_POTENTIALS
     &SCF
       MAX_SCF  500
       EPS_SCF     9.9999999999999995E-08
       CHOLESKY  INVERSE
       SCF_GUESS  ATOMIC
       ADDED_MOS  20
       &DIAGONALIZATION  T
         ALGORITHM  STANDARD
       &END DIAGONALIZATION
       &SMEAR  T
         METHOD  FERMI_DIRAC
         ELECTRONIC_TEMPERATURE     3.0000000000000000E+02
       &END SMEAR
       &MIXING  T
         METHOD  BROYDEN_MIXING
         ALPHA     4.0000000000000002E-01
         BETA     5.0000000000000000E-01
         NBUFFER  8
       &END MIXING
     &END SCF
     &QS
       EPS_DEFAULT     1.0000000000000000E-14
       METHOD  GPW
     &END QS
     &MGRID
       NGRIDS  4
       CUTOFF     5.0000000000000000E+02
       REL_CUTOFF     4.0000000000000000E+01
     &END MGRID
     &XC
       DENSITY_CUTOFF     1.0000000000000000E-10
       GRADIENT_CUTOFF     1.0000000000000000E-10
       TAU_CUTOFF     1.0000000000000000E-10
       &XC_FUNCTIONAL  NO_SHORTCUT
         &PBE  T
         &END PBE
       &END XC_FUNCTIONAL
     &END XC
     &KPOINTS
       SCHEME MONKHORST-PACK 4 4 1
       FULL_GRID  T
     &END KPOINTS
   &END DFT
   &SUBSYS
     &CELL
       A     1.7811878396732897E+01    0.0000000000000000E+00    0.0000000000000000E+00
       B     0.0000000000000000E+00    1.5425539180689926E+01    0.0000000000000000E+00
       C     0.0000000000000000E+00    0.0000000000000000E+00    3.3989536727739349E+01
       PERIODIC  XYZ
       MULTIPLE_UNIT_CELL  1 1 1
       SYMMETRY  ORTHORHOMBIC
     &END CELL
     &COORD
Au    1.4843231999999995E+00    8.5697440000000003E-01    0.0000000000000000E+00
Au    4.4529695999999985E+00    8.5697440000000003E-01    0.0000000000000000E+00
Au    7.4216159999999975E+00    8.5697440000000003E-01    0.0000000000000000E+00
Au    1.0390262399999997E+01    8.5697440000000003E-01    0.0000000000000000E+00
Au    1.3358908799999996E+01    8.5697440000000003E-01    0.0000000000000000E+00
Au    1.6327555199999995E+01    8.5697440000000003E-01    0.0000000000000000E+00
Au    0.0000000000000000E+00    3.4278976000000001E+00    0.0000000000000000E+00
Au    2.9686463999999990E+00    3.4278976000000001E+00    0.0000000000000000E+00
Au    5.9372927999999980E+00    3.4278976000000001E+00    0.0000000000000000E+00
Au    8.9059391999999971E+00    3.4278976000000001E+00    0.0000000000000000E+00
Au    1.1874585599999996E+01    3.4278976000000001E+00    0.0000000000000000E+00
Au    1.4843231999999995E+01    3.4278976000000001E+00    0.0000000000000000E+00
Au    1.4843231999999995E+00    5.9988207899999999E+00    0.0000000000000000E+00
Au    4.4529695999999985E+00    5.9988207899999999E+00    0.0000000000000000E+00
Au    7.4216159999999975E+00    5.9988207899999999E+00    0.0000000000000000E+00
Au    1.0390262399999997E+01    5.9988207899999999E+00    0.0000000000000000E+00
Au    1.3358908799999996E+01    5.9988207899999999E+00    0.0000000000000000E+00
Au    1.6327555199999995E+01    5.9988207899999999E+00    0.0000000000000000E+00
Au    0.0000000000000000E+00    8.5697439900000010E+00    0.0000000000000000E+00
Au    2.9686463999999990E+00    8.5697439900000010E+00    0.0000000000000000E+00
Au    5.9372927999999980E+00    8.5697439900000010E+00    0.0000000000000000E+00
Au    8.9059391999999971E+00    8.5697439900000010E+00    0.0000000000000000E+00
Au    1.1874585599999996E+01    8.5697439900000010E+00    0.0000000000000000E+00
Au    1.4843231999999995E+01    8.5697439900000010E+00    0.0000000000000000E+00
Au    1.4843231999999995E+00    1.1140667190000000E+01    0.0000000000000000E+00
Au    4.4529695999999985E+00    1.1140667190000000E+01    0.0000000000000000E+00
Au    7.4216159999999975E+00    1.1140667190000000E+01    0.0000000000000000E+00
Au    1.0390262399999997E+01    1.1140667190000000E+01    0.0000000000000000E+00
Au    1.3358908799999996E+01    1.1140667190000000E+01    0.0000000000000000E+00
Au    1.6327555199999995E+01    1.1140667190000000E+01    0.0000000000000000E+00
Au    0.0000000000000000E+00    1.3711590380000002E+01    0.0000000000000000E+00
Au    2.9686463999999990E+00    1.3711590380000002E+01    0.0000000000000000E+00
Au    5.9372927999999980E+00    1.3711590380000002E+01    0.0000000000000000E+00
Au    8.9059391999999971E+00    1.3711590380000002E+01    0.0000000000000000E+00
Au    1.1874585599999996E+01    1.3711590380000002E+01    0.0000000000000000E+00
Au    1.4843231999999995E+01    1.3711590380000002E+01    0.0000000000000000E+00
Au    1.2283223513783336E-09    1.7178713850706828E+00    2.4085301995560506E+00
Au    2.9717146138506680E+00    1.7220245690676657E+00    2.4048764441935195E+00
Au    5.9354633145747711E+00    1.7184914921751491E+00    2.4032603550065508E+00
Au    8.9059391995916890E+00    1.7272006712987829E+00    2.4119682753307439E+00
Au    1.1876415084882263E+01    1.7184914922402978E+00    2.4032603549100822E+00
Au    1.4840163785650503E+01    1.7220245694625969E+00    2.4048764440643251E+00
Au    1.4920213247649310E+00    4.2837752279071601E+00    2.4033987024860872E+00
Au    4.4754486466806016E+00    4.2981662413945072E+00    2.4334854734125364E+00
Au    7.4199231099462413E+00    4.2924133800737163E+00    2.4361809407711887E+00
Au    1.0391955288980398E+01    4.2924133802771518E+00    2.4361809408389092E+00
Au    1.3336429753289277E+01    4.2981662412027157E+00    2.4334854741058880E+00
Au    1.6319857074506796E+01    4.2837752281680874E+00    2.4033987023466690E+00
Au    1.3506543156222284E-09    6.8527063878628276E+00    2.4054503939230139E+00
Au    2.9731278994642962E+00    6.8516730219982485E+00    2.4033236728125260E+00
Au    5.9426598272821876E+00    6.8495505273767359E+00    2.4358371239880845E+00
Au    8.9059391995600627E+00    6.8549865057444208E+00    2.4850870451298572E+00
Au    1.1869218572926975E+01    6.8495505270770733E+00    2.4358371241971435E+00
Au    1.4838750500129116E+01    6.8516730225892939E+00    2.4033236731201879E+00
Au    1.4892042764801987E+00    9.4243501616837246E+00    2.4087474644161126E+00
Au    4.4659013474411129E+00    9.4183638217975023E+00    2.4130895173559495E+00
Au    7.4287380365165729E+00    9.4243121227922799E+00    2.4353803025061587E+00
Au    1.0383140363119342E+01    9.4243121229102869E+00    2.4353803022240470E+00
Au    1.3345977052482015E+01    9.4183638219250962E+00    2.4130895174667395E+00
Au    1.6322674123069564E+01    9.4243501616519740E+00    2.4087474658542591E+00
Au    1.7294096682588273E-09    1.1994744275704875E+01    2.4111073630531137E+00
Au    2.9727173804786520E+00    1.1996653549151825E+01    2.4078811626129362E+00
Au    5.9423621252930579E+00    1.1995164231768568E+01    2.4045197699724663E+00
Au    8.9059392001371638E+00    1.1973774516241280E+01    2.4343686595228169E+00
Au    1.1869516275013673E+01    1.1995164231640661E+01    2.4045197704067713E+00
Au    1.4839161019823733E+01    1.1996653549461795E+01    2.4078811624380707E+00
Au    1.4849555789838802E+00    1.4570760865601756E+01    2.4092227472030325E+00
Au    4.4549504688108703E+00    1.4570664932079934E+01    2.4055430114816541E+00
Au    7.4271993873085576E+00    1.4566309137491514E+01    2.4031396974381374E+00
Au    1.0384679012853455E+01    1.4566309138061685E+01    2.4031396970563379E+00
Au    1.3356927931242652E+01    1.4570664932248400E+01    2.4055430116988452E+00
Au    1.6326922820781665E+01    1.4570760865467449E+01    2.4092227489096976E+00
Au    1.8477884784599005E-09   -2.2176197628608423E-03    4.8519853011560228E+00
Au    2.9578379577135689E+00   -5.6311285385325736E-03    4.8511562772012224E+00
Au    5.9181286021654769E+00   -1.6220447414784823E-02    4.8549081336658437E+00
Au    8.9059391999578050E+00   -1.1003568365333932E-02    4.8506371336850682E+00
Au    1.1893749797772987E+01   -1.6220447964874287E-02    4.8549081338456723E+00
Au    1.4854040442135638E+01   -5.6311277191441996E-03    4.8511562775113077E+00
Au    1.4717501850770314E+00    2.5606756104359385E+00    4.8544483936580534E+00
Au    4.4126470383026408E+00    2.5261752022794930E+00    4.8605679991434698E+00
Au    7.3807169663966938E+00    2.4887176310144214E+00    4.8596243585360099E+00
Au    1.0431161434114069E+01    2.4887176312653003E+00    4.8596243585502288E+00
Au    1.3399231361194532E+01    2.5261752026156334E+00    4.8605679994414546E+00
Au    1.6340128214731656E+01    2.5606756096535808E+00    4.8544483939522269E+00
Au    1.8759407788510794E-09    5.1359273310831748E+00    4.8475249466808759E+00
Au    2.9124661125309532E+00    5.1293241735625177E+00    4.8596312158257780E+00
Au    5.8104204581860346E+00    5.0663324724190266E+00    4.9374643735137473E+00
Au    8.9059391993560020E+00    4.9668609228183280E+00    4.8244129160776836E+00
Au    1.2001457940412486E+01    5.0663324723464793E+00    4.9374643731176544E+00
Au    1.4899412287073419E+01    5.1293241741416029E+00    4.8596312152061296E+00
Au    1.4612004918099093E+00    7.7144485015935098E+00    4.8547159719051463E+00
Au    4.3630686812383983E+00    7.7188589286978262E+00    4.8619102495799433E+00
Au    7.2702392824832272E+00    7.7982387715287338E+00    4.8239901156882015E+00
Au    1.0541639116631595E+01    7.7982387705645317E+00    4.8239901148960795E+00
Au    1.3448809718346936E+01    7.7188589299861663E+00    4.8619102504349518E+00
Au    1.6350677908183826E+01    7.7144485005010761E+00    4.8547159711877939E+00
Au    1.3965137398520729E-09    1.0285660188708391E+01    4.8491750135712275E+00
Au    2.9459755683473627E+00    1.0297605431340010E+01    4.8501006081061089E+00
Au    5.8824102243009442E+00    1.0355648080302974E+01    4.8609387093872272E+00
Au    8.9059392006721954E+00    1.0427021399999267E+01    4.9330590175410682E+00
Au    1.1929468175775799E+01    1.0355648079895889E+01    4.8609387096007399E+00
Au    1.4865902831072386E+01    1.0297605432175523E+01    4.8501006085630971E+00
Au    1.4806665251681901E+00    1.2858361969170835E+01    4.8494430281079870E+00
Au    4.4330908058968639E+00    1.2874019165608027E+01    4.8553916784506921E+00
Au    7.3998489242838641E+00    1.2903218544392839E+01    4.8583062364541769E+00
Au    1.0412029475826738E+01    1.2903218544911480E+01    4.8583062364422345E+00
Au    1.3378787594603862E+01    1.2874019165824352E+01    4.8553916786084352E+00
Au    1.6331211875288847E+01    1.2858361968380438E+01    4.8494430282975456E+00
Au    7.4124509414160755E+00    5.9887452561694037E+00    6.9825231231009957E+00
Au    1.0399427458808686E+01    5.9887452560964469E+00    6.9825231230251132E+00
Au    8.9059392000723356E+00    8.5825182488086060E+00    6.9798840589715709E+00
Au    8.9059392013818073E+00    6.8567631753120288E+00    9.1324250718702320E+00
Au    8.9059391990112911E+00    6.8546437867153571E+00    1.1740257029525115E+01
Au    8.9059392016092627E+00    6.8637891423320019E+00    1.4359543659415554E+01
Au    8.9059392005583575E+00    6.8560467668471254E+00    1.6985243999685085E+01
Au    8.9059392002991355E+00    6.8474928209248072E+00    1.9612730409657924E+01
Au    8.9059392003927762E+00    6.8564951507129974E+00    2.2224347390184807E+01
Au    8.9059392000664115E+00    6.8552658828954129E+00    2.4830879469383781E+01
Au    8.9059391994737194E+00    5.1389236342991431E+00    2.6989930892477510E+01
Au    7.4207107175557550E+00    7.7178174957368597E+00    2.6988848948280342E+01
Au    1.0391167684089016E+01    7.7178174951824303E+00    2.6988848947913937E+01
Au    1.9898838076339474E-09    1.7085663700619660E+00    2.9140632373558358E+01
Au    2.9542103445117185E+00    1.7079701237966551E+00    2.9136023717638761E+01
Au    5.8981561728139917E+00    1.6675052758227575E+00    2.9136429110867962E+01
Au    8.9059392018727408E+00    1.6625046831348513E+00    2.9112189166910227E+01
Au    1.1913722227541880E+01    1.6675052791970899E+00    2.9136429111024857E+01
Au    1.4857668055840552E+01    1.7079701211682614E+00    2.9136023716936126E+01
Au    1.4763679084326304E+00    4.2770450988965765E+00    2.9138862624997284E+01
Au    4.4094745701291096E+00    4.2599394602438982E+00    2.9140077292562264E+01
Au    7.3585087000659364E+00    4.1699029462449477E+00    2.9085143233686718E+01
Au    1.0453369695519861E+01    4.1699029468279489E+00    2.9085143234436437E+01
Au    1.3402403830341489E+01    4.2599394587308099E+00    2.9140077292615747E+01
Au    1.6335510490895587E+01    4.2770451020409261E+00    2.9138862624538785E+01
Au    1.4906645400256650E-09    6.8562619220387866E+00    2.9139073458137510E+01
Au    2.9100441649375131E+00    6.8528408737974260E+00    2.9135554723847971E+01
Au    5.8053847528243132E+00    6.8627782732488072E+00    2.9086127302730549E+01
Au    8.9059392000645641E+00    6.8600489538830187E+00    2.9277377470389521E+01
Au    1.2006493647079701E+01    6.8627782743710180E+00    2.9086127303698735E+01
Au    1.4901834235082093E+01    6.8528408722602894E+00    2.9135554723510911E+01
Au    1.4681799682460961E+00    9.4345237765961070E+00    2.9136271110707462E+01
Au    4.4027651371060017E+00    9.4568921880651562E+00    2.9108852292591116E+01
Au    7.3510884127759599E+00    9.5425152265945741E+00    2.9085048058135744E+01
Au    1.0460789991540324E+01    9.5425152271682361E+00    2.9085048057478282E+01
Au    1.3409113262011489E+01    9.4568921857187913E+00    2.9108852292196058E+01
Au    1.6343698431351431E+01    9.4345237800340129E+00    2.9136271110878486E+01
Au    1.5013481853964940E-09    1.2001452605531121E+01    2.9137127461874805E+01
Au    2.9547031725845687E+00    1.2008611068911803E+01    2.9136688579135424E+01
Au    5.9094493384579128E+00    1.2052246534590248E+01    2.9137397599172857E+01
Au    8.9059391990681220E+00    1.2047457576453164E+01    2.9144610908396750E+01
Au    1.1902429061993731E+01    1.2052246537440890E+01    2.9137397598793012E+01
Au    1.4857175227070121E+01    1.2008611065801835E+01    2.9136688578962477E+01
Au    1.4808016461462656E+00    1.4565386081551265E+01    2.9139793481137382E+01
Au    4.4387325812087397E+00    1.4570296653279122E+01    2.9137953857948951E+01
Au    7.4166068703468211E+00    1.4568450008560218E+01    2.9135925729140602E+01
Au    1.0395271529572391E+01    1.4568450005738304E+01    2.9135925728912571E+01
Au    1.3373145818448959E+01    1.4570296653040565E+01    2.9137953857786133E+01
Au    1.6331076753615729E+01    1.4565386084509965E+01    2.9139793481178984E+01
Au    1.6150650404188519E-09   -7.5877826410712050E-04    3.1580371775359222E+01
Au    2.9700732697740606E+00    4.9819991382251262E-04    3.1579823198625302E+01
Au    5.9424878356578379E+00   -1.1273568982012631E-04    3.1585208971274547E+01
Au    8.9059392002103568E+00    1.8092640672839076E-02    3.1576131771273733E+01
Au    1.1869390564531987E+01   -1.1273609002060917E-04    3.1585208970680668E+01
Au    1.4841805130051455E+01    4.9820037479466055E-04    3.1579823198056690E+01
Au    1.4861790294162447E+00    2.5728088301489143E+00    3.1579234071580448E+01
Au    4.4578425228291998E+00    2.5737350021821048E+00    3.1585858218236005E+01
Au    7.4163371349056959E+00    2.5817518159114252E+00    3.1568717019334120E+01
Au    1.0395541265209578E+01    2.5817518160854780E+00    3.1568717019737289E+01
Au    1.3354035877329036E+01    2.5737350022870826E+00    3.1585858218310445E+01
Au    1.6325699370510378E+01    2.5728088298236718E+00    3.1579234070666601E+01
Au    1.8211611714656904E-09    5.1439801396127693E+00    3.1579497581842862E+01
Au    2.9746202964528123E+00    5.1440061915967057E+00    3.1586022510286593E+01
Au    5.9522890330469282E+00    5.1513725362000953E+00    3.1528427540145316E+01
Au    8.9059392000544548E+00    5.1269133051054920E+00    3.1566071414054985E+01
Au    1.1859589366079412E+01    5.1513725356118538E+00    3.1528427539315349E+01
Au    1.4837258102899238E+01    5.1440061921291749E+00    3.1586022510601378E+01
Au    1.4879216197538947E+00    7.7162447568218315E+00    3.1585370387980038E+01
Au    4.4601935049345061E+00    7.7043475672900925E+00    3.1569154488404291E+01
Au    7.4082182603408313E+00    7.7209800044446952E+00    3.1567635242998954E+01
Au    1.0403660139482245E+01    7.7209800050754591E+00    3.1567635243286485E+01
Au    1.3351684894074786E+01    7.7043475670681438E+00    3.1569154488619436E+01
Au    1.6323956779975070E+01    7.7162447561870131E+00    3.1585370386658642E+01
Au    1.4163636167606123E-09    1.0285409793464485E+01    3.1582936182134031E+01
Au    2.9859155376444799E+00    1.0271642061153271E+01    3.1577851713811025E+01
Au    5.9480800602771131E+00    1.0282821095524726E+01    3.1568508700399903E+01
Au    8.9059391999147781E+00    1.0265993103961216E+01    3.1530941806209871E+01
Au    1.1863798339521860E+01    1.0282821095634414E+01    3.1568508699995895E+01
Au    1.4825962861676059E+01    1.0271642061280042E+01    3.1577851713786846E+01
Au    1.4856565923915717E+00    1.2850051532568818E+01    3.1582201894592661E+01
Au    4.4517293297301777E+00    1.2849340400539004E+01    3.1584792983059593E+01
Au    7.4241634164540296E+00    1.2851700002920548E+01    3.1588088105301807E+01
Au    1.0387714982959622E+01    1.2851700003215784E+01    3.1588088105453956E+01
Au    1.3360149069738725E+01    1.2849340400547309E+01    3.1584792983216381E+01
Au    1.6326221806567030E+01    1.2850051532030390E+01    3.1582201893504173E+01
     &END COORD
     &KIND Au
       BASIS_SET TZVP-MOLOPT-SR-GTH-q11
       ELEMENT Au
       POTENTIAL GTH-PBE-q11
       &POTENTIAL
 1 0 10
  0.5900000000000000E+00 1  0.1051717881000000E+02
 3
  0.5438473300000000E+00 2  0.5786811030000000E+01 -0.2250679660000000E+01
  0.2905614950000000E+01
  0.6091729800000000E+00 2  0.4284048730000000E+01 -0.4071285200000000E+01
  0.4817209620000000E+01
  0.4373092200000000E+00 2 -0.7403281240000000E+01  0.3010193070000000E+01
 -0.3413238110000000E+01
         # Potential name:  GTH-PBE-Q11  for symbol:  AU
         # Potential read from the potential filename: /rds/general/user/jj1921/home/GTH_POTENTIALS
       &END POTENTIAL
     &END KIND
     &TOPOLOGY
       COORD_FILE_NAME junction_65.xyz
       COORD_FILE_FORMAT  XYZ
       NUMBER_OF_ATOMS  193
       MULTIPLE_UNIT_CELL  1 1 1
     &END TOPOLOGY
   &END SUBSYS
   &PRINT
     &TOTAL_NUMBERS  ON
     &END TOTAL_NUMBERS
   &END PRINT
 &END FORCE_EVAL
