 # Version information for this restart file 
 # current date 2022-05-01 05:25:06.989
 # current working dir /rds/general/user/jj1921/home/junction/ortho/cell_65
 # Program compiled at                              Thu 12 Jul 13:52:12 BST 2018
 # Program compiled on                                      build-2.hpc.ic.ac.uk
 # Program compiled for                                       Linux-x86-64-intel
 # Source code revision number                                         svn:18464
 &GLOBAL
   PRINT_LEVEL  MEDIUM
   PROJECT_NAME Au_junction
   RUN_TYPE  CELL_OPT
 &END GLOBAL
 &MOTION
   &CELL_OPT
     OPTIMIZER  BFGS
     STEP_START_VAL  61
     TYPE  DIRECT_CELL_OPT
     KEEP_ANGLES  T
     KEEP_SYMMETRY  T
     CONSTRAINT  XY
   &END CELL_OPT
   &CONSTRAINT
     &FIXED_ATOMS
       COMPONENTS_TO_FIX  XYZ
       LIST  1..36
     &END FIXED_ATOMS
   &END CONSTRAINT
   &PRINT
     &TRAJECTORY  SILENT
       &EACH
         CELL_OPT  1
       &END EACH
     &END TRAJECTORY
   &END PRINT
 &END MOTION
 &FORCE_EVAL
   METHOD  QS
   STRESS_TENSOR  ANALYTICAL
   &DFT
     BASIS_SET_FILE_NAME /rds/general/user/jj1921/home/BASIS_COM_MOLOPT_GTH
     POTENTIAL_FILE_NAME /rds/general/user/jj1921/home/GTH_POTENTIALS
     &SCF
       MAX_SCF  500
       EPS_SCF     9.9999999999999995E-08
       CHOLESKY  INVERSE
       SCF_GUESS  ATOMIC
       ADDED_MOS  20
       &DIAGONALIZATION  T
         ALGORITHM  STANDARD
       &END DIAGONALIZATION
       &SMEAR  T
         METHOD  FERMI_DIRAC
         ELECTRONIC_TEMPERATURE     3.0000000000000000E+02
       &END SMEAR
       &MIXING  T
         METHOD  BROYDEN_MIXING
         ALPHA     4.0000000000000002E-01
         BETA     5.0000000000000000E-01
         NBUFFER  8
       &END MIXING
     &END SCF
     &QS
       EPS_DEFAULT     1.0000000000000000E-14
       METHOD  GPW
     &END QS
     &MGRID
       NGRIDS  4
       CUTOFF     5.0000000000000000E+02
       REL_CUTOFF     4.0000000000000000E+01
     &END MGRID
     &XC
       DENSITY_CUTOFF     1.0000000000000000E-10
       GRADIENT_CUTOFF     1.0000000000000000E-10
       TAU_CUTOFF     1.0000000000000000E-10
       &XC_FUNCTIONAL  NO_SHORTCUT
         &PBE  T
         &END PBE
       &END XC_FUNCTIONAL
     &END XC
     &KPOINTS
       SCHEME MONKHORST-PACK 4 4 1
       FULL_GRID  T
     &END KPOINTS
   &END DFT
   &SUBSYS
     &CELL
       A     1.7811878396732901E+01    0.0000000000000000E+00    0.0000000000000000E+00
       B     0.0000000000000000E+00    1.5425539180689929E+01    0.0000000000000000E+00
       C     0.0000000000000000E+00    0.0000000000000000E+00    3.3903364677315949E+01
       PERIODIC  XYZ
       MULTIPLE_UNIT_CELL  1 1 1
       SYMMETRY  ORTHORHOMBIC
     &END CELL
     &COORD
Au    1.4843231999999995E+00    8.5697439999999980E-01    0.0000000000000000E+00
Au    4.4529695999999985E+00    8.5697439999999980E-01    0.0000000000000000E+00
Au    7.4216159999999975E+00    8.5697439999999980E-01    0.0000000000000000E+00
Au    1.0390262399999999E+01    8.5697439999999980E-01    0.0000000000000000E+00
Au    1.3358908799999998E+01    8.5697439999999980E-01    0.0000000000000000E+00
Au    1.6327555199999995E+01    8.5697439999999980E-01    0.0000000000000000E+00
Au    0.0000000000000000E+00    3.4278975999999992E+00    0.0000000000000000E+00
Au    2.9686463999999990E+00    3.4278975999999992E+00    0.0000000000000000E+00
Au    5.9372927999999980E+00    3.4278975999999992E+00    0.0000000000000000E+00
Au    8.9059391999999971E+00    3.4278975999999992E+00    0.0000000000000000E+00
Au    1.1874585599999996E+01    3.4278975999999992E+00    0.0000000000000000E+00
Au    1.4843231999999995E+01    3.4278975999999992E+00    0.0000000000000000E+00
Au    1.4843231999999995E+00    5.9988207899999981E+00    0.0000000000000000E+00
Au    4.4529695999999985E+00    5.9988207899999981E+00    0.0000000000000000E+00
Au    7.4216159999999975E+00    5.9988207899999981E+00    0.0000000000000000E+00
Au    1.0390262399999999E+01    5.9988207899999981E+00    0.0000000000000000E+00
Au    1.3358908799999998E+01    5.9988207899999981E+00    0.0000000000000000E+00
Au    1.6327555199999995E+01    5.9988207899999981E+00    0.0000000000000000E+00
Au    0.0000000000000000E+00    8.5697439899999974E+00    0.0000000000000000E+00
Au    2.9686463999999990E+00    8.5697439899999974E+00    0.0000000000000000E+00
Au    5.9372927999999980E+00    8.5697439899999974E+00    0.0000000000000000E+00
Au    8.9059391999999971E+00    8.5697439899999974E+00    0.0000000000000000E+00
Au    1.1874585599999996E+01    8.5697439899999974E+00    0.0000000000000000E+00
Au    1.4843231999999995E+01    8.5697439899999974E+00    0.0000000000000000E+00
Au    1.4843231999999995E+00    1.1140667189999997E+01    0.0000000000000000E+00
Au    4.4529695999999985E+00    1.1140667189999997E+01    0.0000000000000000E+00
Au    7.4216159999999975E+00    1.1140667189999997E+01    0.0000000000000000E+00
Au    1.0390262399999999E+01    1.1140667189999997E+01    0.0000000000000000E+00
Au    1.3358908799999998E+01    1.1140667189999997E+01    0.0000000000000000E+00
Au    1.6327555199999995E+01    1.1140667189999997E+01    0.0000000000000000E+00
Au    0.0000000000000000E+00    1.3711590380000001E+01    0.0000000000000000E+00
Au    2.9686463999999990E+00    1.3711590380000001E+01    0.0000000000000000E+00
Au    5.9372927999999980E+00    1.3711590380000001E+01    0.0000000000000000E+00
Au    8.9059391999999971E+00    1.3711590380000001E+01    0.0000000000000000E+00
Au    1.1874585599999996E+01    1.3711590380000001E+01    0.0000000000000000E+00
Au    1.4843231999999995E+01    1.3711590380000001E+01    0.0000000000000000E+00
Au    5.3483772210847135E-10    1.7020084607370038E+00    2.3994416311391400E+00
Au    2.9575676838595908E+00    1.7027322864765664E+00    2.3996249336654478E+00
Au    5.9178378192788941E+00    1.7139390603909823E+00    2.4003894646548498E+00
Au    8.9059392008842764E+00    1.7379165198294655E+00    2.4146427030497235E+00
Au    1.1894040581269936E+01    1.7139390606686145E+00    2.4003894654826299E+00
Au    1.4854310715935881E+01    1.7027322861405718E+00    2.3996249352018233E+00
Au    1.4821743269679117E+00    4.2681328460421204E+00    2.4005192243379248E+00
Au    4.4442502928375243E+00    4.2787422973828226E+00    2.4276247175256409E+00
Au    7.4035874756402276E+00    4.2843440722206259E+00    2.4128210887168748E+00
Au    1.0408290925690203E+01    4.2843440707709366E+00    2.4128210884850860E+00
Au    1.3367628109613410E+01    4.2787422971105231E+00    2.4276247180362476E+00
Au    1.6329704074925239E+01    4.2681328469160826E+00    2.4005192228213250E+00
Au    3.3145686730102564E-09    6.8461357587766258E+00    2.3998710622996207E+00
Au    2.9557641185989034E+00    6.8406040807858268E+00    2.4007617450698371E+00
Au    5.9204285277330984E+00    6.8391103655119840E+00    2.4101941357020991E+00
Au    8.9059392011410488E+00    6.8566217871819504E+00    2.4579693010480721E+00
Au    1.1891449872525868E+01    6.8391103669008793E+00    2.4101941355199443E+00
Au    1.4856114282224970E+01    6.8406040813356892E+00    2.4007617445819518E+00
Au    1.4867774377567313E+00    9.4167040046729511E+00    2.4048924454419276E+00
Au    4.4627063624776264E+00    9.4144782538792047E+00    2.4110522597284083E+00
Au    7.4248534143150495E+00    9.4476981856111593E+00    2.4065327191877763E+00
Au    1.0387024987698439E+01    9.4476981854555557E+00    2.4065327197964157E+00
Au    1.3349172038818487E+01    9.4144782547608816E+00    2.4110522583476639E+00
Au    1.6325100963458102E+01    9.4167040045219537E+00    2.4048924475820157E+00
Au    1.4466226477235459E-09    1.1980911053798200E+01    2.4003615490471071E+00
Au    2.9654563624668713E+00    1.1989119546072578E+01    2.4007299123530985E+00
Au    5.9322579782004485E+00    1.2010716008258978E+01    2.4012853135607104E+00
Au    8.9059392010688860E+00    1.2020763985803248E+01    2.4210374024498029E+00
Au    1.1879620423318709E+01    1.2010716009118836E+01    2.4012853131576835E+00
Au    1.4846422038967123E+01    1.1989119546777781E+01    2.4007299121544525E+00
Au    1.4793322816808678E+00    1.4554973686867189E+01    2.4022281428045611E+00
Au    4.4428040513489728E+00    1.4564887722685658E+01    2.3959565881355416E+00
Au    7.4182434806545743E+00    1.4586840520975167E+01    2.4015020253995729E+00
Au    1.0393634920666058E+01    1.4586840521158654E+01    2.4015020243448606E+00
Au    1.3369074350440588E+01    1.4564887723360691E+01    2.3959565874058333E+00
Au    1.6332546118400099E+01    1.4554973687685488E+01    2.4022281429686880E+00
Au    4.2371805286934262E-09   -2.9561265042604711E-02    4.8580987406470895E+00
Au    2.9296646050107737E+00   -2.5735883491372420E-02    4.8568839222731599E+00
Au    5.8862344975846499E+00   -1.3884789830336927E-02    4.8559090198050701E+00
Au    8.9059392005835925E+00    3.7243873539868893E-03    4.8442130590388564E+00
Au    1.1925643906090562E+01   -1.3884791649518072E-02    4.8559090198675330E+00
Au    1.4882213797606790E+01   -2.5735881213974778E-02    4.8568839245985087E+00
Au    1.4608941159472446E+00    2.5352059490017194E+00    4.8613831557087357E+00
Au    4.3906484621984179E+00    2.5219493270767286E+00    4.8575404894153769E+00
Au    7.3554559074514696E+00    2.4914860029112726E+00    4.8494183665479076E+00
Au    1.0456422498572190E+01    2.4914860013956157E+00    4.8494183672032758E+00
Au    1.3421229939808272E+01    2.5219493283452787E+00    4.8575404901536494E+00
Au    1.6350984287043278E+01    2.5352059486199603E+00    4.8613831560262675E+00
Au    2.2275075505016916E-09    5.1159255780480297E+00    4.8575353445996399E+00
Au    2.9077040660663562E+00    5.1110123361588808E+00    4.8581546331378576E+00
Au    5.8318022688997173E+00    5.0780948281993634E+00    4.9273506081646552E+00
Au    8.9059392027722382E+00    4.9355177877834153E+00    4.7886385471285191E+00
Au    1.1980076133494032E+01    5.0780948299778350E+00    4.9273506041881703E+00
Au    1.4904174336140771E+01    5.1110123361788844E+00    4.8581546297447975E+00
Au    1.4524711105802666E+00    7.7049278487002661E+00    4.8547109839897189E+00
Au    4.3475934072220541E+00    7.7026888538378939E+00    4.8509116743129992E+00
Au    7.2324241938525402E+00    7.8245692618800113E+00    4.7727476335933030E+00
Au    1.0579454207419557E+01    7.8245692638142543E+00    4.7727476344001847E+00
Au    1.3464284994239915E+01    7.7026888572170513E+00    4.8509116768336451E+00
Au    1.6359407291454321E+01    7.7049278452506229E+00    4.8547109845282517E+00
Au    4.3681661474085786E-09    1.0275699672729607E+01    4.8480880316589392E+00
Au    2.9375998216189334E+00    1.0290111491310865E+01    4.8460285837114929E+00
Au    5.8762225399667072E+00    1.0373943875496902E+01    4.8465214373404404E+00
Au    8.9059392019796757E+00    1.0422694202783600E+01    4.8916034071052668E+00
Au    1.1935655865031581E+01    1.0373943875723000E+01    4.8465214399065948E+00
Au    1.4874278581171344E+01    1.0290111493645947E+01    4.8460285846127391E+00
Au    1.4688985248684625E+00    1.2842701929303496E+01    4.8514001127097499E+00
Au    4.4075627852772135E+00    1.2872121626430937E+01    4.8537375859638381E+00
Au    7.3888974240628107E+00    1.2918942627676010E+01    4.8476735272357816E+00
Au    1.0422980976227590E+01    1.2918942629222908E+01    4.8476735265794453E+00
Au    1.3404315617704256E+01    1.2872121627565351E+01    4.8537375867201407E+00
Au    1.6342979878623424E+01    1.2842701928965926E+01    4.8514001140706906E+00
Au    7.4451276717649906E+00    6.0428792385783794E+00    6.9604305042021579E+00
Au    1.0366750733784668E+01    6.0428792389144181E+00    6.9604305041073093E+00
Au    8.9059392007015870E+00    8.5650023041418084E+00    6.9427681289503873E+00
Au    8.9059391989209225E+00    6.8688209091113146E+00    9.1856248332607429E+00
Au    8.9059390900397410E+00    6.3879565675320817E+00    1.1817419547950022E+01
Au    8.9059393856934577E+00    7.3735771715832117E+00    1.4290549652612269E+01
Au    8.9059389605498449E+00    6.9516769816332618E+00    1.6923869791311322E+01
Au    8.9059393517301402E+00    6.2701426959516864E+00    1.9496032560531173E+01
Au    8.9059391677051742E+00    7.2782806210924837E+00    2.1958025046405641E+01
Au    8.9059392025698809E+00    6.8590118587007973E+00    2.4601045198696752E+01
Au    8.9059391931144170E+00    5.1692810111682306E+00    2.6889082506764709E+01
Au    7.4577940978689998E+00    7.6793591578210378E+00    2.6865759528016408E+01
Au    1.0354084302749952E+01    7.6793591528578160E+00    2.6865759531540043E+01
Au    5.3835915682556864E-10    1.7102983017571050E+00    2.9059507669234769E+01
Au    2.9399073692771713E+00    1.7084160185699413E+00    2.9053572317621828E+01
Au    5.8870288547806346E+00    1.6703035058816094E+00    2.9054469095612504E+01
Au    8.9059392041423902E+00    1.6666080336840501E+00    2.9037372259268349E+01
Au    1.1924849544040805E+01    1.6703035088620271E+00    2.9054469096819652E+01
Au    1.4871971029862149E+01    1.7084160167469673E+00    2.9053572319639954E+01
Au    1.4686888992174618E+00    4.2798170275079270E+00    2.9057535427024270E+01
Au    4.4047973537195126E+00    4.2641250891504274E+00    2.9058614297703389E+01
Au    7.3753472825113970E+00    4.1853840704875820E+00    2.9009227923560118E+01
Au    1.0436531104167521E+01    4.1853840742887209E+00    2.9009227926902710E+01
Au    1.3407081044659376E+01    4.2641250831320887E+00    2.9058614295024832E+01
Au    1.6343189499663467E+01    4.2798170299351783E+00    2.9057535425098965E+01
Au    3.2567019673559787E-10    6.8651678202161524E+00    2.9058049141187656E+01
Au    2.9144847896430748E+00    6.8604142172046183E+00    2.9051555213099597E+01
Au    5.8293096289006119E+00    6.8852723656511028E+00    2.8992273079593595E+01
Au    8.9059391998359700E+00    6.8641741294624321E+00    2.9219326186984031E+01
Au    1.1982568770423669E+01    6.8852723612816362E+00    2.8992273083813753E+01
Au    1.4897393608638280E+01    6.8604142211831709E+00    2.9051555212311627E+01
Au    1.4655864677969102E+00    9.4497646612032415E+00    2.9052340501689621E+01
Au    4.3945881340790116E+00    9.4651100537764812E+00    2.9027619604990999E+01
Au    7.3433847893264685E+00    9.5091215923221490E+00    2.8987144311895698E+01
Au    1.0468493622765076E+01    9.5091215940829734E+00    2.8987144307905101E+01
Au    1.3417290267877457E+01    9.4651100500594278E+00    2.9027619606978309E+01
Au    1.6346291934773859E+01    9.4497646655326815E+00    2.9052340502740833E+01
Au    1.3817190878730950E-09    1.2017408065496472E+01    2.9056374289051021E+01
Au    2.9424994079211970E+00    1.2015874772624121E+01    2.9051358551621423E+01
Au    5.9018137915273909E+00    1.2049194150124872E+01    2.9053692445079044E+01
Au    8.9059391992942647E+00    1.2037517789987181E+01    2.9060669206889077E+01
Au    1.1910064611590645E+01    1.2049194152634017E+01    2.9053692444519090E+01
Au    1.4869378994122286E+01    1.2015874770812507E+01    2.9051358552766143E+01
Au    1.4692349215715061E+00    1.4572702061513370E+01    2.9058820189593199E+01
Au    4.4156623823386525E+00    1.4571304930011490E+01    2.9057760439180576E+01
Au    7.4066454214125894E+00    1.4573431460847702E+01    2.9055934508343849E+01
Au    1.0405232982045328E+01    1.4573431457751674E+01    2.9055934508089457E+01
Au    1.3396216019685703E+01    1.4571304929060000E+01    2.9057760440310062E+01
Au    1.6342643477900648E+01    1.4572702065268928E+01    2.9058820190643456E+01
Au    3.0661906323580283E-09    6.4932601816557797E-03    3.1505949141391589E+01
Au    2.9645929778654216E+00    6.2856630289900278E-03    3.1504357933656379E+01
Au    5.9318986218920120E+00   -6.3168485934454012E-03    3.1503230268261998E+01
Au    8.9059392013358671E+00    6.4056928747172519E-03    3.1491920109554396E+01
Au    1.1879979778586693E+01   -6.3168482791868159E-03    3.1503230266608714E+01
Au    1.4847285422663223E+01    6.2856613399322556E-03    3.1504357932992168E+01
Au    1.4828702476365601E+00    2.5753413462096773E+00    3.1501674554241887E+01
Au    4.4553282328482506E+00    2.5766127494201183E+00    3.1505635691189752E+01
Au    7.4125985506149457E+00    2.5682277659345614E+00    3.1488258791554646E+01
Au    1.0399279850137251E+01    2.5682277663335347E+00    3.1488258792596984E+01
Au    1.3356550167561371E+01    2.5766127507941783E+00    3.1505635690358829E+01
Au    1.6329008149570370E+01    2.5753413483256931E+00    3.1501674552895491E+01
Au    1.1379245483945369E-09    5.1484911048902413E+00    3.1498793042107518E+01
Au    2.9708449301382216E+00    5.1474600320616233E+00    3.1504589748818436E+01
Au    5.9380825760452423E+00    5.1513997937168492E+00    3.1457192661045333E+01
Au    8.9059391982325558E+00    5.1254416299093721E+00    3.1503631625047369E+01
Au    1.1873795823293174E+01    5.1513997934752123E+00    3.1457192661128030E+01
Au    1.4841033467488334E+01    5.1474600322841013E+00    3.1504589752487032E+01
Au    1.4822476288943687E+00    7.7216193935259190E+00    3.1501999223536568E+01
Au    4.4449635118987452E+00    7.7134005442190441E+00    3.1485611316812186E+01
Au    7.4025501913025993E+00    7.7253056956634341E+00    3.1501674343868157E+01
Au    1.0409328207186499E+01    7.7253056958711461E+00    3.1501674342408233E+01
Au    1.3366914887158252E+01    7.7134005419594960E+00    3.1485611318286267E+01
Au    1.6329630771404197E+01    7.7216193932088775E+00    3.1501999220316172E+01
Au    1.7473071749173586E-09    1.0295693297015141E+01    3.1503754138838080E+01
Au    2.9752794613472893E+00    1.0282216601127532E+01    3.1497516770813373E+01
Au    5.9364061385501721E+00    1.0291426224120372E+01    3.1485774874975668E+01
Au    8.9059392008085663E+00    1.0273857386118081E+01    3.1450241437728884E+01
Au    1.1875472262722836E+01    1.0291426225058633E+01    3.1485774875358228E+01
Au    1.4836598938043270E+01    1.0282216600586121E+01    3.1497516769134812E+01
Au    1.4806364513620363E+00    1.2858112958802838E+01    3.1505766608742245E+01
Au    4.4439454411718273E+00    1.2855336794631796E+01    3.1503996634731010E+01
Au    7.4222561355904109E+00    1.2846801534525683E+01    3.1503558038536156E+01
Au    1.0389622264670598E+01    1.2846801532949263E+01    3.1503558038377339E+01
Au    1.3367932958942074E+01    1.2855336794080710E+01    3.1503996636738194E+01
Au    1.6331241949133158E+01    1.2858112959524826E+01    3.1505766607961093E+01
     &END COORD
     &KIND Au
       BASIS_SET TZVP-MOLOPT-SR-GTH-q11
       ELEMENT Au
       POTENTIAL GTH-PBE-q11
       &POTENTIAL
1 0 10
0.5900000000000000E+00 1  0.1051717881000000E+02
3
0.5438473300000000E+00 2  0.5786811030000000E+01 -0.2250679660000000E+01
0.2905614950000000E+01
0.6091729800000000E+00 2  0.4284048730000000E+01 -0.4071285200000000E+01
0.4817209620000000E+01
0.4373092200000000E+00 2 -0.7403281240000000E+01  0.3010193070000000E+01
-0.3413238110000000E+01
       &END POTENTIAL
     &END KIND
     &TOPOLOGY
       COORD_FILE_NAME junction_65.xyz
       COORD_FILE_FORMAT  XYZ
       NUMBER_OF_ATOMS  193
       MULTIPLE_UNIT_CELL  1 1 1
     &END TOPOLOGY
   &END SUBSYS
   &PRINT
     &TOTAL_NUMBERS  ON
     &END TOTAL_NUMBERS
   &END PRINT
 &END FORCE_EVAL
