 # Version information for this restart file 
 # current date 2022-05-03 04:15:46.389
 # current working dir /rds/general/user/jj1921/home/junction/ortho/cell_65
 # Program compiled at                              Thu 12 Jul 13:52:12 BST 2018
 # Program compiled on                                      build-2.hpc.ic.ac.uk
 # Program compiled for                                       Linux-x86-64-intel
 # Source code revision number                                         svn:18464
 &GLOBAL
   PRINT_LEVEL  MEDIUM
   PROJECT_NAME Au_junction
   RUN_TYPE  CELL_OPT
 &END GLOBAL
 &MOTION
   &CELL_OPT
     OPTIMIZER  BFGS
     STEP_START_VAL  98
     TYPE  DIRECT_CELL_OPT
     KEEP_ANGLES  T
     KEEP_SYMMETRY  T
     CONSTRAINT  XY
   &END CELL_OPT
   &CONSTRAINT
     &FIXED_ATOMS
       COMPONENTS_TO_FIX  XYZ
       LIST  1..36
     &END FIXED_ATOMS
   &END CONSTRAINT
   &PRINT
     &TRAJECTORY  SILENT
       &EACH
         CELL_OPT  1
       &END EACH
     &END TRAJECTORY
   &END PRINT
 &END MOTION
 &FORCE_EVAL
   METHOD  QS
   STRESS_TENSOR  ANALYTICAL
   &DFT
     BASIS_SET_FILE_NAME /rds/general/user/jj1921/home/BASIS_COM_MOLOPT_GTH
     POTENTIAL_FILE_NAME /rds/general/user/jj1921/home/GTH_POTENTIALS
     &SCF
       MAX_SCF  500
       EPS_SCF     9.9999999999999995E-08
       CHOLESKY  INVERSE
       SCF_GUESS  ATOMIC
       ADDED_MOS  20
       &DIAGONALIZATION  T
         ALGORITHM  STANDARD
       &END DIAGONALIZATION
       &SMEAR  T
         METHOD  FERMI_DIRAC
         ELECTRONIC_TEMPERATURE     3.0000000000000000E+02
       &END SMEAR
       &MIXING  T
         METHOD  BROYDEN_MIXING
         ALPHA     4.0000000000000002E-01
         BETA     5.0000000000000000E-01
         NBUFFER  8
       &END MIXING
     &END SCF
     &QS
       EPS_DEFAULT     1.0000000000000000E-14
       METHOD  GPW
     &END QS
     &MGRID
       NGRIDS  4
       CUTOFF     5.0000000000000000E+02
       REL_CUTOFF     4.0000000000000000E+01
     &END MGRID
     &XC
       DENSITY_CUTOFF     1.0000000000000000E-10
       GRADIENT_CUTOFF     1.0000000000000000E-10
       TAU_CUTOFF     1.0000000000000000E-10
       &XC_FUNCTIONAL  NO_SHORTCUT
         &PBE  T
         &END PBE
       &END XC_FUNCTIONAL
     &END XC
     &KPOINTS
       SCHEME MONKHORST-PACK 4 4 1
       FULL_GRID  T
     &END KPOINTS
   &END DFT
   &SUBSYS
     &CELL
       A     1.7811878396732904E+01    0.0000000000000000E+00    0.0000000000000000E+00
       B     0.0000000000000000E+00    1.5425539180689926E+01    0.0000000000000000E+00
       C     0.0000000000000000E+00    0.0000000000000000E+00    3.2992000849211564E+01
       PERIODIC  XYZ
       MULTIPLE_UNIT_CELL  1 1 1
       SYMMETRY  ORTHORHOMBIC
     &END CELL
     &COORD
Au    1.4843231999999993E+00    8.5697439999999980E-01    0.0000000000000000E+00
Au    4.4529695999999976E+00    8.5697439999999980E-01    0.0000000000000000E+00
Au    7.4216159999999967E+00    8.5697439999999980E-01    0.0000000000000000E+00
Au    1.0390262399999997E+01    8.5697439999999980E-01    0.0000000000000000E+00
Au    1.3358908799999995E+01    8.5697439999999980E-01    0.0000000000000000E+00
Au    1.6327555199999992E+01    8.5697439999999980E-01    0.0000000000000000E+00
Au    0.0000000000000000E+00    3.4278975999999992E+00    0.0000000000000000E+00
Au    2.9686463999999986E+00    3.4278975999999992E+00    0.0000000000000000E+00
Au    5.9372927999999972E+00    3.4278975999999992E+00    0.0000000000000000E+00
Au    8.9059391999999953E+00    3.4278975999999992E+00    0.0000000000000000E+00
Au    1.1874585599999994E+01    3.4278975999999992E+00    0.0000000000000000E+00
Au    1.4843231999999993E+01    3.4278975999999992E+00    0.0000000000000000E+00
Au    1.4843231999999993E+00    5.9988207899999981E+00    0.0000000000000000E+00
Au    4.4529695999999976E+00    5.9988207899999981E+00    0.0000000000000000E+00
Au    7.4216159999999967E+00    5.9988207899999981E+00    0.0000000000000000E+00
Au    1.0390262399999997E+01    5.9988207899999981E+00    0.0000000000000000E+00
Au    1.3358908799999995E+01    5.9988207899999981E+00    0.0000000000000000E+00
Au    1.6327555199999992E+01    5.9988207899999981E+00    0.0000000000000000E+00
Au    0.0000000000000000E+00    8.5697439899999992E+00    0.0000000000000000E+00
Au    2.9686463999999986E+00    8.5697439899999992E+00    0.0000000000000000E+00
Au    5.9372927999999972E+00    8.5697439899999992E+00    0.0000000000000000E+00
Au    8.9059391999999953E+00    8.5697439899999992E+00    0.0000000000000000E+00
Au    1.1874585599999994E+01    8.5697439899999992E+00    0.0000000000000000E+00
Au    1.4843231999999993E+01    8.5697439899999992E+00    0.0000000000000000E+00
Au    1.4843231999999993E+00    1.1140667189999997E+01    0.0000000000000000E+00
Au    4.4529695999999976E+00    1.1140667189999997E+01    0.0000000000000000E+00
Au    7.4216159999999967E+00    1.1140667189999997E+01    0.0000000000000000E+00
Au    1.0390262399999997E+01    1.1140667189999997E+01    0.0000000000000000E+00
Au    1.3358908799999995E+01    1.1140667189999997E+01    0.0000000000000000E+00
Au    1.6327555199999992E+01    1.1140667189999997E+01    0.0000000000000000E+00
Au    0.0000000000000000E+00    1.3711590380000002E+01    0.0000000000000000E+00
Au    2.9686463999999986E+00    1.3711590380000002E+01    0.0000000000000000E+00
Au    5.9372927999999972E+00    1.3711590380000002E+01    0.0000000000000000E+00
Au    8.9059391999999953E+00    1.3711590380000002E+01    0.0000000000000000E+00
Au    1.1874585599999994E+01    1.3711590380000002E+01    0.0000000000000000E+00
Au    1.4843231999999993E+01    1.3711590380000002E+01    0.0000000000000000E+00
Au    2.3843692780869962E-09    1.7063049218823882E+00    2.4107151195673935E+00
Au    2.9559352123194902E+00    1.7071219941894569E+00    2.4063997650366238E+00
Au    5.9203334927140148E+00    1.7110140531000602E+00    2.4047317774026973E+00
Au    8.9059391992316606E+00    1.7290240509533670E+00    2.4164042548678011E+00
Au    1.1891544907093529E+01    1.7110140519960362E+00    2.4047317761424307E+00
Au    1.4855943188951253E+01    1.7071219925593326E+00    2.4063997670198618E+00
Au    1.4792717067146861E+00    4.2735217881544285E+00    2.4065782675896625E+00
Au    4.4474395734194152E+00    4.2835720675591729E+00    2.4282571752410038E+00
Au    7.4042970530865002E+00    4.2852835956104069E+00    2.4149051818284359E+00
Au    1.0407581343977769E+01    4.2852835961519320E+00    2.4149051870196727E+00
Au    1.3364438834369722E+01    4.2835720627273526E+00    2.4282571593367002E+00
Au    1.6332606697330114E+01    4.2735217887125447E+00    2.4065782695753213E+00
Au    1.6462745366146741E-09    6.8495588711066215E+00    2.4066283082659297E+00
Au    2.9578208568869075E+00    6.8476293486351754E+00    2.4038172529237145E+00
Au    5.9273314749339416E+00    6.8449841485155343E+00    2.4175011616740671E+00
Au    8.9059392006070137E+00    6.8560796764046232E+00    2.4673541718450571E+00
Au    1.1884546923473646E+01    6.8449841525838409E+00    2.4175011669908160E+00
Au    1.4854057544314404E+01    6.8476293488672058E+00    2.4038172538757694E+00
Au    1.4874785654405414E+00    9.4216630551027585E+00    2.4089534416251204E+00
Au    4.4597654620649561E+00    9.4219683042928288E+00    2.4126713240380404E+00
Au    7.4274884694395640E+00    9.4387334008336978E+00    2.4209842676374453E+00
Au    1.0384389933186105E+01    9.4387334007472141E+00    2.4209842660833072E+00
Au    1.3352112940218523E+01    9.4219683066074840E+00    2.4126713271430416E+00
Au    1.6324399835072427E+01    9.4216630549043501E+00    2.4089534428311814E+00
Au    1.9744570480315646E-09    1.1990270172297731E+01    2.4098164180995414E+00
Au    2.9680165328158674E+00    1.1993337088333679E+01    2.4074025145508546E+00
Au    5.9344148179858580E+00    1.2009467465127750E+01    2.4059708027280617E+00
Au    8.9059392007575813E+00    1.2002609875036054E+01    2.4296895585529539E+00
Au    1.1877463584194828E+01    1.2009467465498071E+01    2.4059708035080107E+00
Au    1.4843861868753256E+01    1.1993337089207378E+01    2.4074025129701591E+00
Au    1.4792671130971584E+00    1.4561071718312611E+01    2.4100992674255823E+00
Au    4.4426973084470474E+00    1.4566904364578305E+01    2.4050141770150164E+00
Au    7.4205240374166994E+00    1.4582680249182964E+01    2.4050788910150587E+00
Au    1.0391354362476283E+01    1.4582680249480356E+01    2.4050788907785621E+00
Au    1.3369181092772076E+01    1.4566904365198548E+01    2.4050141753505159E+00
Au    1.6332611287961999E+01    1.4561071716967918E+01    2.4100992673725052E+00
Au    4.2051543817104947E-09   -1.3299170039154958E-02    4.8712546603481934E+00
Au    2.9369848199445152E+00   -1.3550046999441559E-02    4.8653011631864995E+00
Au    5.8963884189972484E+00   -1.9369394753484804E-02    4.8611585127345212E+00
Au    8.9059392007871505E+00   -5.3087293366284758E-03    4.8514611738295175E+00
Au    1.1915489981651447E+01   -1.9369394474472119E-02    4.8611585119223246E+00
Au    1.4874893583413183E+01   -1.3550048821449470E-02    4.8653011637519716E+00
Au    1.4620799784861329E+00    2.5514765073320453E+00    4.8699216176394664E+00
Au    4.3954324688310749E+00    2.5256471819744957E+00    4.8613408339038013E+00
Au    7.3598001382324885E+00    2.4812479923864692E+00    4.8520244235687660E+00
Au    1.0452078262844594E+01    2.4812479942666434E+00    4.8520244244568875E+00
Au    1.3416445934964209E+01    2.5256471774914035E+00    4.8613408361329151E+00
Au    1.6349798424933152E+01    2.5514765051576984E+00    4.8699216145069864E+00
Au    5.7000751212681326E-09    5.1294488587217622E+00    4.8636884602069603E+00
Au    2.9085579165256954E+00    5.1245817308868826E+00    4.8624048714726520E+00
Au    5.8167186636138988E+00    5.0701621674242263E+00    4.9115626899708840E+00
Au    8.9059391975955222E+00    4.9270770273873268E+00    4.7805978191187410E+00
Au    1.1995159751268892E+01    5.0701621552561651E+00    4.9115626494373226E+00
Au    1.4903320490012401E+01    5.1245817314659776E+00    4.8624048708471772E+00
Au    1.4549836800714091E+00    7.7136551181174893E+00    4.8634841504884658E+00
Au    4.3476780363192002E+00    7.7150653143557006E+00    4.8524748566962632E+00
Au    7.2377546960510379E+00    7.8120752316512645E+00    4.7903719921458183E+00
Au    1.0574123703872035E+01    7.8120752403461600E+00    4.7903719941864100E+00
Au    1.3464200367070761E+01    7.7150653186293852E+00    4.8524748599856391E+00
Au    1.6356894722844487E+01    7.7136551173575478E+00    4.8634841499254673E+00
Au    2.8809042442159619E-09    1.0285428468862083E+01    4.8592059034055595E+00
Au    2.9383032696137552E+00    1.0297198844995716E+01    4.8547623605699251E+00
Au    5.8772101592461112E+00    1.0367387915912317E+01    4.8523041369238467E+00
Au    8.9059391989190519E+00    1.0410022256908702E+01    4.9151367231943848E+00
Au    1.1934668248769798E+01    1.0367387922448479E+01    4.8523041413698040E+00
Au    1.4873575135931649E+01    1.0297198849032162E+01    4.8547623635403871E+00
Au    1.4716246923775969E+00    1.2851843444448320E+01    4.8637925486883384E+00
Au    4.4162090459226127E+00    1.2872470684860243E+01    4.8631019385486400E+00
Au    7.3975538413450330E+00    1.2904178838148766E+01    4.8556881157903353E+00
Au    1.0414324560705575E+01    1.2904178838696051E+01    4.8556881147140283E+00
Au    1.3395669359151016E+01    1.2872470690490790E+01    4.8631019386537480E+00
Au    1.6340253710588993E+01    1.2851843444501259E+01    4.8637925487634170E+00
Au    7.4314911702506707E+00    5.9938223909531336E+00    6.9486534975254797E+00
Au    1.0380387272149814E+01    5.9938224027232501E+00    6.9486534785958662E+00
Au    8.9059392217388833E+00    8.5342102194909142E+00    6.9585460392423730E+00
Au    8.9059392306113452E+00    6.7859930304982203E+00    9.1486342882608316E+00
Au    8.9059367393225681E+00    6.2450558117987045E+00    1.1716326111281738E+01
Au    8.9059452891810196E+00    7.6047421130772088E+00    1.3977145119084799E+01
Au    8.9059320406498834E+00    7.1478212230161446E+00    1.6575597422231855E+01
Au    8.9059437695763410E+00    5.9929131347169431E+00    1.8930920394477532E+01
Au    8.9059379296102215E+00    7.3345489526359877E+00    2.1181568604044248E+01
Au    8.9059391831616121E+00    6.8810591339991030E+00    2.3780165731513133E+01
Au    8.9059391995304864E+00    5.1706409488812506E+00    2.5999721221876957E+01
Au    7.4465538167228980E+00    7.7085989761046996E+00    2.5983283662783958E+01
Au    1.0365324603895344E+01    7.7085989725695301E+00    2.5983283693804164E+01
Au    9.8017168298276301E-10    1.7104853915024674E+00    2.8131710741232929E+01
Au    2.9434185370236552E+00    1.7088293882593553E+00    2.8129982461048275E+01
Au    5.8904957002691027E+00    1.6732458246263135E+00    2.8137042489546616E+01
Au    8.9059392016285468E+00    1.6673683535860555E+00    2.8122996500325257E+01
Au    1.1921382698418842E+01    1.6732458278344824E+00    2.8137042490889939E+01
Au    1.4868459865736128E+01    1.7088293820943363E+00    2.8129982459940010E+01
Au    1.4706134174572889E+00    4.2796956591721482E+00    2.8133311149623520E+01
Au    4.4073926842669229E+00    4.2653317010578649E+00    2.8147414019883545E+01
Au    7.3634349501044412E+00    4.1783325051005198E+00    2.8112201328459079E+01
Au    1.0448443437316927E+01    4.1783325125358139E+00    2.8112201318579359E+01
Au    1.3404485719255382E+01    4.2653316899587477E+00    2.8147414016442319E+01
Au    1.6341264984767285E+01    4.2796956605911687E+00    2.8133311153788757E+01
Au    3.5187523839323065E-09    6.8584005188196144E+00    2.8132885620264979E+01
Au    2.9166674551265763E+00    6.8555060318149978E+00    2.8135381535035847E+01
Au    5.8202645211033888E+00    6.8749554557366590E+00    2.8099129546198235E+01
Au    8.9059391931037535E+00    6.8679080586195651E+00    2.8324274562859760E+01
Au    1.1991613888854101E+01    6.8749554396277466E+00    2.8099129559118182E+01
Au    1.4895210951262719E+01    6.8555060308945155E+00    2.8135381535973931E+01
Au    1.4659060854926707E+00    9.4374955270796637E+00    2.8128608115114904E+01
Au    4.3963334485200249E+00    9.4601021298915704E+00    2.8115778151400793E+01
Au    7.3461398914009717E+00    9.5339365945711734E+00    2.8103646816811867E+01
Au    1.0465738512402046E+01    9.5339366158345360E+00    2.8103646834273526E+01
Au    1.3415544949610643E+01    9.4601021261736236E+00    2.8115778156768172E+01
Au    1.6345972315425250E+01    9.4374955308462400E+00    2.8128608115428165E+01
Au    1.5939571267351444E-09    1.2005586274989239E+01    2.8125855153821263E+01
Au    2.9446148647231150E+00    1.2010681265024127E+01    2.8128610135297613E+01
Au    5.9028515463907887E+00    1.2050559529855446E+01    2.8140389816392872E+01
Au    8.9059391937730119E+00    1.2046878742485777E+01    2.8154343196355484E+01
Au    1.1909026857482365E+01    1.2050559537520016E+01    2.8140389815563939E+01
Au    1.4867263536450755E+01    1.2010681262639206E+01    2.8128610133674322E+01
Au    1.4725410206063596E+00    1.4568738590315190E+01    2.8130187063686556E+01
Au    4.4228068436585550E+00    1.4572268159407992E+01    2.8132434080524344E+01
Au    7.4081036050718545E+00    1.4576244996927448E+01    2.8137002045717097E+01
Au    1.0403774795273703E+01    1.4576244993921177E+01    2.8137002046402262E+01
Au    1.3389071558695504E+01    1.4572268160107040E+01    2.8132434078821479E+01
Au    1.6339337379585793E+01    1.4568738594576686E+01    2.8130187060405394E+01
Au    1.0013383928585838E-09    4.4234336162742175E-03    3.0582448061794707E+01
Au    2.9633858093894530E+00    5.0190045020393906E-03    3.0582441034006795E+01
Au    5.9309119974253459E+00   -7.2720292037782930E-03    3.0585948884474320E+01
Au    8.9059392014548990E+00    4.0828697398890878E-03    3.0578364541858413E+01
Au    1.1880966403582036E+01   -7.2720309677192559E-03    3.0585948883926076E+01
Au    1.4848492589918868E+01    5.0190042157777035E-03    3.0582441035175201E+01
Au    1.4840150502166354E+00    2.5744753960758233E+00    3.0582066236500527E+01
Au    4.4508564641763115E+00    2.5701682283221672E+00    3.0587312653659492E+01
Au    7.4131012429202015E+00    2.5678674484076227E+00    3.0576465340612394E+01
Au    1.0398777158050999E+01    2.5678674517997617E+00    3.0576465334846720E+01
Au    1.3361021935580911E+01    2.5701682264764423E+00    3.0587312654605689E+01
Au    1.6327863349781754E+01    2.5744753942900851E+00    3.0582066236543422E+01
Au    1.8223486954351405E-09    5.1461384499865002E+00    3.0581272478750122E+01
Au    2.9657343561572134E+00    5.1449859872156010E+00    3.0587920862755936E+01
Au    5.9393745732177399E+00    5.1497794501477827E+00    3.0543676236719300E+01
Au    8.9059391993157107E+00    5.1227183268082443E+00    3.0587733991548518E+01
Au    1.1872503825306476E+01    5.1497794444365645E+00    3.0543676233567062E+01
Au    1.4846144042770637E+01    5.1449859875772859E+00    3.0587920865521340E+01
Au    1.4804676268428447E+00    7.7193571211720400E+00    3.0585134278260981E+01
Au    4.4464425768653522E+00    7.7117763141252755E+00    3.0575018482290741E+01
Au    7.4024434304488729E+00    7.7260901605161667E+00    3.0588573960370123E+01
Au    1.0409434969228331E+01    7.7260901600725926E+00    3.0588573958473688E+01
Au    1.3365435822182267E+01    7.7117763130675767E+00    3.0575018481631322E+01
Au    1.6331410774768361E+01    7.7193571212395291E+00    3.0585134277285686E+01
Au    2.3838937732696363E-09    1.0292775366463058E+01    3.0582120266000857E+01
Au    2.9702823179242275E+00    1.0282271662852793E+01    3.0578670317789900E+01
Au    5.9325411373059085E+00    1.0292643223278420E+01    3.0577519814350783E+01
Au    8.9059391961692853E+00    1.0277333854978144E+01    3.0543897913548744E+01
Au    1.1879337265229001E+01    1.0292643223955375E+01    3.0577519816617713E+01
Au    1.4841596084615265E+01    1.0282271663605874E+01    3.0578670320338826E+01
Au    1.4800817157118904E+00    1.2857563545184414E+01    3.0583164364370010E+01
Au    4.4387957519498338E+00    1.2857336982254203E+01    3.0585686128401445E+01
Au    7.4173375305737119E+00    1.2854280913659935E+01    3.0588413512088056E+01
Au    1.0394540867927997E+01    1.2854280911901759E+01    3.0588413510442937E+01
Au    1.3373082648251735E+01    1.2857336982217944E+01    3.0585686128918734E+01
Au    1.6331796683433957E+01    1.2857563544982810E+01    3.0583164362661648E+01
     &END COORD
     &KIND Au
       BASIS_SET TZVP-MOLOPT-SR-GTH-q11
       ELEMENT Au
       POTENTIAL GTH-PBE-q11
       &POTENTIAL
1 0 10
0.5900000000000000E+00 1  0.1051717881000000E+02
3
0.5438473300000000E+00 2  0.5786811030000000E+01 -0.2250679660000000E+01
0.2905614950000000E+01
0.6091729800000000E+00 2  0.4284048730000000E+01 -0.4071285200000000E+01
0.4817209620000000E+01
0.4373092200000000E+00 2 -0.7403281240000000E+01  0.3010193070000000E+01
-0.3413238110000000E+01
       &END POTENTIAL
     &END KIND
     &TOPOLOGY
       COORD_FILE_NAME junction_65.xyz
       COORD_FILE_FORMAT  XYZ
       NUMBER_OF_ATOMS  193
       MULTIPLE_UNIT_CELL  1 1 1
     &END TOPOLOGY
   &END SUBSYS
   &PRINT
     &TOTAL_NUMBERS  ON
     &END TOTAL_NUMBERS
   &END PRINT
 &END FORCE_EVAL
