 # Version information for this restart file 
 # current date 2022-05-01 10:10:15.822
 # current working dir /rds/general/user/jj1921/home/junction/ortho/cell_65
 # Program compiled at                              Thu 12 Jul 13:52:12 BST 2018
 # Program compiled on                                      build-2.hpc.ic.ac.uk
 # Program compiled for                                       Linux-x86-64-intel
 # Source code revision number                                         svn:18464
 &GLOBAL
   PRINT_LEVEL  MEDIUM
   PROJECT_NAME Au_junction
   RUN_TYPE  CELL_OPT
 &END GLOBAL
 &MOTION
   &CELL_OPT
     OPTIMIZER  BFGS
     STEP_START_VAL  66
     TYPE  DIRECT_CELL_OPT
     KEEP_ANGLES  T
     KEEP_SYMMETRY  T
     CONSTRAINT  XY
   &END CELL_OPT
   &CONSTRAINT
     &FIXED_ATOMS
       COMPONENTS_TO_FIX  XYZ
       LIST  1..36
     &END FIXED_ATOMS
   &END CONSTRAINT
   &PRINT
     &TRAJECTORY  SILENT
       &EACH
         CELL_OPT  1
       &END EACH
     &END TRAJECTORY
   &END PRINT
 &END MOTION
 &FORCE_EVAL
   METHOD  QS
   STRESS_TENSOR  ANALYTICAL
   &DFT
     BASIS_SET_FILE_NAME /rds/general/user/jj1921/home/BASIS_COM_MOLOPT_GTH
     POTENTIAL_FILE_NAME /rds/general/user/jj1921/home/GTH_POTENTIALS
     &SCF
       MAX_SCF  500
       EPS_SCF     9.9999999999999995E-08
       CHOLESKY  INVERSE
       SCF_GUESS  ATOMIC
       ADDED_MOS  20
       &DIAGONALIZATION  T
         ALGORITHM  STANDARD
       &END DIAGONALIZATION
       &SMEAR  T
         METHOD  FERMI_DIRAC
         ELECTRONIC_TEMPERATURE     3.0000000000000000E+02
       &END SMEAR
       &MIXING  T
         METHOD  BROYDEN_MIXING
         ALPHA     4.0000000000000002E-01
         BETA     5.0000000000000000E-01
         NBUFFER  8
       &END MIXING
     &END SCF
     &QS
       EPS_DEFAULT     1.0000000000000000E-14
       METHOD  GPW
     &END QS
     &MGRID
       NGRIDS  4
       CUTOFF     5.0000000000000000E+02
       REL_CUTOFF     4.0000000000000000E+01
     &END MGRID
     &XC
       DENSITY_CUTOFF     1.0000000000000000E-10
       GRADIENT_CUTOFF     1.0000000000000000E-10
       TAU_CUTOFF     1.0000000000000000E-10
       &XC_FUNCTIONAL  NO_SHORTCUT
         &PBE  T
         &END PBE
       &END XC_FUNCTIONAL
     &END XC
     &KPOINTS
       SCHEME MONKHORST-PACK 4 4 1
       FULL_GRID  T
     &END KPOINTS
   &END DFT
   &SUBSYS
     &CELL
       A     1.7811878396732901E+01    0.0000000000000000E+00    0.0000000000000000E+00
       B     0.0000000000000000E+00    1.5425539180689929E+01    0.0000000000000000E+00
       C     0.0000000000000000E+00    0.0000000000000000E+00    3.3679261374688799E+01
       PERIODIC  XYZ
       MULTIPLE_UNIT_CELL  1 1 1
       SYMMETRY  ORTHORHOMBIC
     &END CELL
     &COORD
Au    1.4843231999999995E+00    8.5697439999999980E-01    0.0000000000000000E+00
Au    4.4529695999999985E+00    8.5697439999999980E-01    0.0000000000000000E+00
Au    7.4216159999999975E+00    8.5697439999999980E-01    0.0000000000000000E+00
Au    1.0390262399999999E+01    8.5697439999999980E-01    0.0000000000000000E+00
Au    1.3358908799999998E+01    8.5697439999999980E-01    0.0000000000000000E+00
Au    1.6327555199999995E+01    8.5697439999999980E-01    0.0000000000000000E+00
Au    0.0000000000000000E+00    3.4278975999999992E+00    0.0000000000000000E+00
Au    2.9686463999999990E+00    3.4278975999999992E+00    0.0000000000000000E+00
Au    5.9372927999999980E+00    3.4278975999999992E+00    0.0000000000000000E+00
Au    8.9059391999999971E+00    3.4278975999999992E+00    0.0000000000000000E+00
Au    1.1874585599999996E+01    3.4278975999999992E+00    0.0000000000000000E+00
Au    1.4843231999999995E+01    3.4278975999999992E+00    0.0000000000000000E+00
Au    1.4843231999999995E+00    5.9988207899999981E+00    0.0000000000000000E+00
Au    4.4529695999999985E+00    5.9988207899999981E+00    0.0000000000000000E+00
Au    7.4216159999999975E+00    5.9988207899999981E+00    0.0000000000000000E+00
Au    1.0390262399999999E+01    5.9988207899999981E+00    0.0000000000000000E+00
Au    1.3358908799999998E+01    5.9988207899999981E+00    0.0000000000000000E+00
Au    1.6327555199999995E+01    5.9988207899999981E+00    0.0000000000000000E+00
Au    0.0000000000000000E+00    8.5697439899999974E+00    0.0000000000000000E+00
Au    2.9686463999999990E+00    8.5697439899999974E+00    0.0000000000000000E+00
Au    5.9372927999999980E+00    8.5697439899999974E+00    0.0000000000000000E+00
Au    8.9059391999999971E+00    8.5697439899999974E+00    0.0000000000000000E+00
Au    1.1874585599999996E+01    8.5697439899999974E+00    0.0000000000000000E+00
Au    1.4843231999999995E+01    8.5697439899999974E+00    0.0000000000000000E+00
Au    1.4843231999999995E+00    1.1140667189999997E+01    0.0000000000000000E+00
Au    4.4529695999999985E+00    1.1140667189999997E+01    0.0000000000000000E+00
Au    7.4216159999999975E+00    1.1140667189999997E+01    0.0000000000000000E+00
Au    1.0390262399999999E+01    1.1140667189999997E+01    0.0000000000000000E+00
Au    1.3358908799999998E+01    1.1140667189999997E+01    0.0000000000000000E+00
Au    1.6327555199999995E+01    1.1140667189999997E+01    0.0000000000000000E+00
Au    0.0000000000000000E+00    1.3711590380000001E+01    0.0000000000000000E+00
Au    2.9686463999999990E+00    1.3711590380000001E+01    0.0000000000000000E+00
Au    5.9372927999999980E+00    1.3711590380000001E+01    0.0000000000000000E+00
Au    8.9059391999999971E+00    1.3711590380000001E+01    0.0000000000000000E+00
Au    1.1874585599999996E+01    1.3711590380000001E+01    0.0000000000000000E+00
Au    1.4843231999999995E+01    1.3711590380000001E+01    0.0000000000000000E+00
Au    2.1030212484413994E-09    1.7115914324272508E+00    2.3906630810391700E+00
Au    2.9696750268982521E+00    1.7182590739767012E+00    2.3962329442124366E+00
Au    5.9263219286451019E+00    1.7043991144603539E+00    2.4040346143071871E+00
Au    8.9059392003898825E+00    1.7391418841659361E+00    2.4097143812856827E+00
Au    1.1885556472863344E+01    1.7043991132561480E+00    2.4040346132770414E+00
Au    1.4842203374542311E+01    1.7182590735403842E+00    2.3962329428717020E+00
Au    1.4860990988189486E+00    4.2803414648680151E+00    2.3933400454240177E+00
Au    4.4673553375003614E+00    4.2896912893098484E+00    2.4343796482027420E+00
Au    7.4152491943015688E+00    4.2907315653095708E+00    2.4241491853703900E+00
Au    1.0396629205895799E+01    4.2907315637483050E+00    2.4241491821169641E+00
Au    1.3344523064240279E+01    4.2896912889249288E+00    2.4343796552529025E+00
Au    1.6325779304966005E+01    4.2803414649158773E+00    2.3933400398873581E+00
Au    5.1785807413783088E-09    6.8458644424355848E+00    2.3850802966738769E+00
Au    2.9586337549721708E+00    6.8438443150502826E+00    2.3976072212764818E+00
Au    5.9326400603848386E+00    6.8411834421309496E+00    2.4164164690209380E+00
Au    8.9059392003255162E+00    6.8607654109164224E+00    2.4648298294240782E+00
Au    1.1879238340163891E+01    6.8411834433459529E+00    2.4164164659626994E+00
Au    1.4853244645246470E+01    6.8438443174725316E+00    2.3976072196968965E+00
Au    1.4925490313979066E+00    9.4189498126518476E+00    2.3957340264183546E+00
Au    4.4698703763208476E+00    9.4069066486499135E+00    2.4055545249120014E+00
Au    7.4269815883006434E+00    9.4364982753203357E+00    2.4123895209168613E+00
Au    1.0384896814237010E+01    9.4364982773924648E+00    2.4123895225957308E+00
Au    1.3342008026625315E+01    9.4069066510223998E+00    2.4055545224012969E+00
Au    1.6319329370903599E+01    9.4189498126128495E+00    2.3957340313333555E+00
Au    2.7033229524302047E-10    1.1986899376470049E+01    2.3988012002566728E+00
Au    2.9800237586228935E+00    1.1984605987059000E+01    2.3960048129512650E+00
Au    5.9441276388666120E+00    1.2002747342186009E+01    2.4014140301856508E+00
Au    8.9059392022927941E+00    1.1996053381780264E+01    2.4282358320926334E+00
Au    1.1867750763131944E+01    1.2002747342345755E+01    2.4014140323664983E+00
Au    1.4831854642709532E+01    1.1984605988473463E+01    2.3960048149257989E+00
Au    1.4870789124602266E+00    1.4564508723086805E+01    2.3989725272063649E+00
Au    4.4519261546255251E+00    1.4564164824144234E+01    2.3915853353231782E+00
Au    7.4281536325996598E+00    1.4579097551888045E+01    2.3969985663747746E+00
Au    1.0383724769992515E+01    1.4579097552387669E+01    2.3969985651324217E+00
Au    1.3359952247547472E+01    1.4564164824860681E+01    2.3915853379500143E+00
Au    1.6324799486691514E+01    1.4564508723255814E+01    2.3989725271560034E+00
Au    2.2231413596308687E-09   -2.0691787678996799E-02    4.8338238135071636E+00
Au    2.9426635118933646E+00   -1.1686298958992770E-02    4.8390690918898276E+00
Au    5.8952613853445675E+00   -2.2760276151364289E-02    4.8447504556452410E+00
Au    8.9059392013045748E+00   -4.1616478364000899E-03    4.8372386894214037E+00
Au    1.1916617018809681E+01   -2.2760277515441584E-02    4.8447504558968335E+00
Au    1.4869214893716597E+01   -1.1686296484248265E-02    4.8390690970143941E+00
Au    1.4638655326118593E+00    2.5491359770152631E+00    4.8373527364045552E+00
Au    4.3986989077513998E+00    2.5275656504377948E+00    4.8497961486682346E+00
Au    7.3629964673904462E+00    2.4894923844527201E+00    4.8453403296039017E+00
Au    1.0448881936393802E+01    2.4894923840037517E+00    4.8453403301436371E+00
Au    1.3413179494868752E+01    2.5275656503945698E+00    4.8497961480261695E+00
Au    1.6348012871736923E+01    2.5491359754062737E+00    4.8373527369645162E+00
Au    1.5568577753103322E-09    5.1220569221489516E+00    4.8295675869440338E+00
Au    2.9123476109456465E+00    5.1168041038899279E+00    4.8494389171724439E+00
Au    5.8224317447463747E+00    5.0716608758138797E+00    4.9314270993458473E+00
Au    8.9059392009759719E+00    4.9463757636636796E+00    4.8122013622025088E+00
Au    1.1989446651941277E+01    5.0716608792253712E+00    4.9314270936649613E+00
Au    1.4899530793534209E+01    5.1168041047125588E+00    4.8494389090041778E+00
Au    1.4502573899794389E+00    7.7031421864645315E+00    4.8388720649270658E+00
Au    4.3452281745360537E+00    7.7018648348183909E+00    4.8434401092565000E+00
Au    7.2347865833457128E+00    7.8258304089151247E+00    4.7900538958543342E+00
Au    1.0577091817612853E+01    7.8258304108574102E+00    4.7900538970238680E+00
Au    1.3466650224885880E+01    7.7018648382770571E+00    4.8434401095952264E+00
Au    1.6361621011797240E+01    7.7031421843013499E+00    4.8388720617590888E+00
Au    4.4650992557902957E-09    1.0273533109304703E+01    4.8245449269361211E+00
Au    2.9399635472549663E+00    1.0286802625010017E+01    4.8318654042830298E+00
Au    5.8755406550180069E+00    1.0369383375887585E+01    4.8415047001367348E+00
Au    8.9059392016526537E+00    1.0423439906868280E+01    4.9019131780334524E+00
Au    1.1936337749503599E+01    1.0369383374613195E+01    4.8415047010810728E+00
Au    1.4871914854612164E+01    1.0286802626145160E+01    4.8318654059380162E+00
Au    1.4785901365422973E+00    1.2843966662874326E+01    4.8314335342399328E+00
Au    4.4162702271990684E+00    1.2873729908023650E+01    4.8442602040365168E+00
Au    7.3983456130369261E+00    1.2909376055606616E+01    4.8397666000966346E+00
Au    1.0413532790968784E+01    1.2909376058050031E+01    4.8397666000234869E+00
Au    1.3395608175129871E+01    1.2873729908109953E+01    4.8442602039846117E+00
Au    1.6333288265993669E+01    1.2843966665330647E+01    4.8314335370232682E+00
Au    7.4386631191027197E+00    6.0497224310640521E+00    6.9821737368165726E+00
Au    1.0373215285873492E+01    6.0497224312802453E+00    6.9821737404125122E+00
Au    8.9059392034539666E+00    8.5530978100387536E+00    6.9707117304945170E+00
Au    8.9059391973979931E+00    6.8242614307768203E+00    9.2266442601093388E+00
Au    8.9059390200365307E+00    6.3108829251031402E+00    1.1842481504156211E+01
Au    8.9059395960661210E+00    7.4513034553775110E+00    1.4227805054826501E+01
Au    8.9059386948669026E+00    6.9886544570659623E+00    1.6837194525283255E+01
Au    8.9059395145026805E+00    6.1932168297263974E+00    1.9364221018808518E+01
Au    8.9059391277468549E+00    7.3098769404472668E+00    2.1738549249768987E+01
Au    8.9059392031349489E+00    6.8991506055113661E+00    2.4398356193372095E+01
Au    8.9059391961875285E+00    5.1729152810517798E+00    2.6642909858135031E+01
Au    7.4472992570039711E+00    7.6739614439069088E+00    2.6631649897538679E+01
Au    1.0364579146437212E+01    7.6739614403690508E+00    2.6631649898886710E+01
Au    1.9390846558227197E-09    1.7172406067117636E+00    2.8855539279908069E+01
Au    2.9421300654949856E+00    1.7124542543180388E+00    2.8845826298443740E+01
Au    5.8857403219239481E+00    1.6768324028070010E+00    2.8838060178435686E+01
Au    8.9059392034533023E+00    1.6606981898259658E+00    2.8821317506121723E+01
Au    1.1926138075824966E+01    1.6768324042763816E+00    2.8838060179778477E+01
Au    1.4869748335393876E+01    1.7124542574967843E+00    2.8845826301150066E+01
Au    1.4705966527770444E+00    4.2873411423208445E+00    2.8848340105493143E+01
Au    4.4060271686023427E+00    4.2674478391276836E+00    2.8845504034674001E+01
Au    7.3663382477321742E+00    4.1802089814977652E+00    2.8784267724597527E+01
Au    1.0445540143040185E+01    4.1802089849223636E+00    2.8784267729857937E+01
Au    1.3405851236034939E+01    4.2674478401406004E+00    2.8845504033876399E+01
Au    1.6341281738080085E+01    4.2873411499721357E+00    2.8848340103956666E+01
Au    7.4182656045940928E-10    6.8650231154979835E+00    2.8849412935915517E+01
Au    2.9095503466198913E+00    6.8590641402374786E+00    2.8840666125215080E+01
Au    5.8088716919841277E+00    6.8762006522143571E+00    2.8778595603113036E+01
Au    8.9059392011792173E+00    6.8669834621185082E+00    2.8984914826719208E+01
Au    1.2003006707877313E+01    6.8762006457285452E+00    2.8778595604222936E+01
Au    1.4902328048726147E+01    6.8590641338999081E+00    2.8840666124206194E+01
Au    1.4609070386990992E+00    9.4434861490543724E+00    2.8845592678839555E+01
Au    4.3900341367460323E+00    9.4650146692187338E+00    2.8810714481821542E+01
Au    7.3383521572579120E+00    9.5179205714604525E+00    2.8768119274709779E+01
Au    1.0473526252714601E+01    9.5179205718920645E+00    2.8768119269949921E+01
Au    1.3421844260340984E+01    9.4650146665034480E+00    2.8810714484138046E+01
Au    1.6350971368354127E+01    9.4434861555970890E+00    2.8845592681994578E+01
Au    2.4848879340208751E-09    1.2005876236939216E+01    2.8851412527412943E+01
Au    2.9469640605170220E+00    1.2016269801630784E+01    2.8842657857620217E+01
Au    5.9085488357100227E+00    1.2047208870326500E+01    2.8835161678442294E+01
Au    8.9059391995491524E+00    1.2037165044015484E+01    2.8842638307943368E+01
Au    1.1903329563702867E+01    1.2047208875329668E+01    2.8835161678327239E+01
Au    1.4864914339358487E+01    1.2016269800175827E+01    2.8842657859491688E+01
Au    1.4757634539355002E+00    1.4570214174380270E+01    2.8853765753250137E+01
Au    4.4275576840796891E+00    1.4570875458305743E+01    2.8842707132473585E+01
Au    7.4081085339004265E+00    1.4570186679794492E+01    2.8838541049846377E+01
Au    1.0403769868491421E+01    1.4570186675520555E+01    2.8838541049148244E+01
Au    1.3384320714526236E+01    1.4570875457520453E+01    2.8842707134956925E+01
Au    1.6336114948164141E+01    1.4570214176409355E+01    2.8853765756288691E+01
Au    3.8382410275163030E-09    6.5834992399918882E-04    3.1286339481360965E+01
Au    2.9742398313640743E+00    7.7588462298828782E-03    3.1280739008900554E+01
Au    5.9433284707357776E+00   -1.9734475207555864E-03    3.1283802302995408E+01
Au    8.9059391995930870E+00    1.3317818524578740E-02    3.1268211294693369E+01
Au    1.1868549928534346E+01   -1.9734461948783745E-03    3.1283802306578348E+01
Au    1.4837638569975635E+01    7.7588464558140955E-03    3.1280739007092670E+01
Au    1.4886918050116886E+00    2.5832739165986909E+00    3.1282298735723106E+01
Au    4.4600927948550613E+00    2.5820419765414280E+00    3.1283348269195510E+01
Au    7.4102182005343593E+00    2.5782541800783196E+00    3.1255520790430801E+01
Au    1.0401660200421148E+01    2.5782541807922548E+00    3.1255520792447136E+01
Au    1.3351785606207702E+01    2.5820419803473058E+00    3.1283348266456567E+01
Au    1.6323186594980307E+01    2.5832739208137583E+00    3.1282298735317532E+01
Au    1.3693862076100571E-09    5.1502978055379538E+00    3.1288893500503395E+01
Au    2.9779013924223650E+00    5.1512225344281610E+00    3.1285307297861770E+01
Au    5.9510923364008281E+00    5.1542527414323631E+00    3.1224377795578004E+01
Au    8.9059392000292643E+00    5.1261232176527276E+00    3.1271121491801935E+01
Au    1.1860786063406440E+01    5.1542527402102474E+00    3.1224377792864914E+01
Au    1.4833977007510990E+01    5.1512225379560448E+00    3.1285307306080508E+01
Au    1.4874653512313285E+00    7.7204377335784313E+00    3.1286745337687957E+01
Au    4.4544287243326801E+00    7.7081850859949341E+00    3.1259118663326017E+01
Au    7.4070169875162080E+00    7.7201629991208129E+00    3.1272480084668626E+01
Au    1.0404861413600289E+01    7.7201630000559014E+00    3.1272480084881796E+01
Au    1.3357449674265100E+01    7.7081850850629667E+00    3.1259118664484941E+01
Au    1.6324413048849436E+01    7.7204377332241449E+00    3.1286745330958279E+01
Au    3.9459090079517585E-09    1.0282101317478158E+01    3.1289577174328794E+01
Au    2.9859341900358176E+00    1.0275935025493421E+01    3.1278547947546130E+01
Au    5.9476277771890560E+00    1.0285370804477397E+01    3.1257165184448731E+01
Au    8.9059392000615496E+00    1.0261205692253911E+01    3.1210239655352112E+01
Au    1.1864250621893808E+01    1.0285370804408078E+01    3.1257165183924890E+01
Au    1.4825944211060440E+01    1.0275935023984395E+01    3.1278547946554500E+01
Au    1.4903316702442451E+00    1.2853220928299335E+01    3.1285821226295354E+01
Au    4.4556831842407059E+00    1.2849060554028975E+01    3.1281710397028011E+01
Au    7.4266756107275382E+00    1.2846612640629912E+01    3.1281873931061309E+01
Au    1.0385202783409696E+01    1.2846612638347899E+01    3.1281873932972278E+01
Au    1.3356195212909812E+01    1.2849060551854139E+01    3.1281710401520876E+01
Au    1.6321546731903535E+01    1.2853220930428009E+01    3.1285821228425135E+01
     &END COORD
     &KIND Au
       BASIS_SET TZVP-MOLOPT-SR-GTH-q11
       ELEMENT Au
       POTENTIAL GTH-PBE-q11
       &POTENTIAL
1 0 10
0.5900000000000000E+00 1  0.1051717881000000E+02
3
0.5438473300000000E+00 2  0.5786811030000000E+01 -0.2250679660000000E+01
0.2905614950000000E+01
0.6091729800000000E+00 2  0.4284048730000000E+01 -0.4071285200000000E+01
0.4817209620000000E+01
0.4373092200000000E+00 2 -0.7403281240000000E+01  0.3010193070000000E+01
-0.3413238110000000E+01
       &END POTENTIAL
     &END KIND
     &TOPOLOGY
       COORD_FILE_NAME junction_65.xyz
       COORD_FILE_FORMAT  XYZ
       NUMBER_OF_ATOMS  193
       MULTIPLE_UNIT_CELL  1 1 1
     &END TOPOLOGY
   &END SUBSYS
   &PRINT
     &TOTAL_NUMBERS  ON
     &END TOTAL_NUMBERS
   &END PRINT
 &END FORCE_EVAL
