 # Version information for this restart file 
 # current date 2022-04-26 09:38:25.386
 # current working dir /rds/general/user/jj1921/home/junction/ortho/cell_65
 # Program compiled at                              Thu 12 Jul 13:52:12 BST 2018
 # Program compiled on                                      build-2.hpc.ic.ac.uk
 # Program compiled for                                       Linux-x86-64-intel
 # Source code revision number                                         svn:18464
 &GLOBAL
   PRINT_LEVEL  MEDIUM
   PROJECT_NAME Au_junction
   RUN_TYPE  CELL_OPT
 &END GLOBAL
 &MOTION
   &CELL_OPT
     OPTIMIZER  BFGS
     STEP_START_VAL  9
     TYPE  DIRECT_CELL_OPT
     KEEP_ANGLES  T
     KEEP_SYMMETRY  T
     CONSTRAINT  XY
   &END CELL_OPT
   &CONSTRAINT
     &FIXED_ATOMS
       COMPONENTS_TO_FIX  XYZ
       LIST  1..36
     &END FIXED_ATOMS
   &END CONSTRAINT
   &PRINT
     &TRAJECTORY  SILENT
       &EACH
         CELL_OPT  1
       &END EACH
     &END TRAJECTORY
   &END PRINT
 &END MOTION
 &FORCE_EVAL
   METHOD  QS
   STRESS_TENSOR  ANALYTICAL
   &DFT
     BASIS_SET_FILE_NAME /rds/general/user/jj1921/home/BASIS_COM_MOLOPT_GTH
     POTENTIAL_FILE_NAME /rds/general/user/jj1921/home/GTH_POTENTIALS
     &SCF
       MAX_SCF  500
       EPS_SCF     9.9999999999999995E-08
       CHOLESKY  INVERSE
       SCF_GUESS  ATOMIC
       ADDED_MOS  20
       &DIAGONALIZATION  T
         ALGORITHM  STANDARD
       &END DIAGONALIZATION
       &SMEAR  T
         METHOD  FERMI_DIRAC
         ELECTRONIC_TEMPERATURE     3.0000000000000000E+02
       &END SMEAR
       &MIXING  T
         METHOD  BROYDEN_MIXING
         ALPHA     4.0000000000000002E-01
         BETA     5.0000000000000000E-01
         NBUFFER  8
       &END MIXING
     &END SCF
     &QS
       EPS_DEFAULT     1.0000000000000000E-14
       METHOD  GPW
     &END QS
     &MGRID
       NGRIDS  4
       CUTOFF     5.0000000000000000E+02
       REL_CUTOFF     4.0000000000000000E+01
     &END MGRID
     &XC
       DENSITY_CUTOFF     1.0000000000000000E-10
       GRADIENT_CUTOFF     1.0000000000000000E-10
       TAU_CUTOFF     1.0000000000000000E-10
       &XC_FUNCTIONAL  NO_SHORTCUT
         &PBE  T
         &END PBE
       &END XC_FUNCTIONAL
     &END XC
     &KPOINTS
       SCHEME MONKHORST-PACK 4 4 1
       FULL_GRID  T
     &END KPOINTS
   &END DFT
   &SUBSYS
     &CELL
       A     1.7811878396732897E+01    0.0000000000000000E+00    0.0000000000000000E+00
       B     0.0000000000000000E+00    1.5425539180689926E+01    0.0000000000000000E+00
       C     0.0000000000000000E+00    0.0000000000000000E+00    3.4038713636853501E+01
       PERIODIC  XYZ
       MULTIPLE_UNIT_CELL  1 1 1
       SYMMETRY  ORTHORHOMBIC
     &END CELL
     &COORD
Au    1.4843231999999995E+00    8.5697440000000003E-01    0.0000000000000000E+00
Au    4.4529695999999985E+00    8.5697440000000003E-01    0.0000000000000000E+00
Au    7.4216159999999975E+00    8.5697440000000003E-01    0.0000000000000000E+00
Au    1.0390262399999997E+01    8.5697440000000003E-01    0.0000000000000000E+00
Au    1.3358908799999996E+01    8.5697440000000003E-01    0.0000000000000000E+00
Au    1.6327555199999995E+01    8.5697440000000003E-01    0.0000000000000000E+00
Au    0.0000000000000000E+00    3.4278976000000001E+00    0.0000000000000000E+00
Au    2.9686463999999990E+00    3.4278976000000001E+00    0.0000000000000000E+00
Au    5.9372927999999980E+00    3.4278976000000001E+00    0.0000000000000000E+00
Au    8.9059391999999971E+00    3.4278976000000001E+00    0.0000000000000000E+00
Au    1.1874585599999996E+01    3.4278976000000001E+00    0.0000000000000000E+00
Au    1.4843231999999995E+01    3.4278976000000001E+00    0.0000000000000000E+00
Au    1.4843231999999995E+00    5.9988207899999999E+00    0.0000000000000000E+00
Au    4.4529695999999985E+00    5.9988207899999999E+00    0.0000000000000000E+00
Au    7.4216159999999975E+00    5.9988207899999999E+00    0.0000000000000000E+00
Au    1.0390262399999997E+01    5.9988207899999999E+00    0.0000000000000000E+00
Au    1.3358908799999996E+01    5.9988207899999999E+00    0.0000000000000000E+00
Au    1.6327555199999995E+01    5.9988207899999999E+00    0.0000000000000000E+00
Au    0.0000000000000000E+00    8.5697439900000010E+00    0.0000000000000000E+00
Au    2.9686463999999990E+00    8.5697439900000010E+00    0.0000000000000000E+00
Au    5.9372927999999980E+00    8.5697439900000010E+00    0.0000000000000000E+00
Au    8.9059391999999971E+00    8.5697439900000010E+00    0.0000000000000000E+00
Au    1.1874585599999996E+01    8.5697439900000010E+00    0.0000000000000000E+00
Au    1.4843231999999995E+01    8.5697439900000010E+00    0.0000000000000000E+00
Au    1.4843231999999995E+00    1.1140667190000000E+01    0.0000000000000000E+00
Au    4.4529695999999985E+00    1.1140667190000000E+01    0.0000000000000000E+00
Au    7.4216159999999975E+00    1.1140667190000000E+01    0.0000000000000000E+00
Au    1.0390262399999997E+01    1.1140667190000000E+01    0.0000000000000000E+00
Au    1.3358908799999996E+01    1.1140667190000000E+01    0.0000000000000000E+00
Au    1.6327555199999995E+01    1.1140667190000000E+01    0.0000000000000000E+00
Au    0.0000000000000000E+00    1.3711590380000002E+01    0.0000000000000000E+00
Au    2.9686463999999990E+00    1.3711590380000002E+01    0.0000000000000000E+00
Au    5.9372927999999980E+00    1.3711590380000002E+01    0.0000000000000000E+00
Au    8.9059391999999971E+00    1.3711590380000002E+01    0.0000000000000000E+00
Au    1.1874585599999996E+01    1.3711590380000002E+01    0.0000000000000000E+00
Au    1.4843231999999995E+01    1.3711590380000002E+01    0.0000000000000000E+00
Au    1.5738917881703662E-09    1.7165892781949337E+00    2.4157439974520858E+00
Au    2.9697484055010066E+00    1.7159687057666222E+00    2.4130258227225121E+00
Au    5.9366649554453179E+00    1.7198374644643626E+00    2.4136678529636035E+00
Au    8.9059391999490725E+00    1.7203150069199979E+00    2.4175832733089164E+00
Au    1.1875213444265999E+01    1.7198374645404164E+00    2.4136678528348217E+00
Au    1.4842129993992890E+01    1.7159687058196855E+00    2.4130258225828900E+00
Au    1.4872781082829678E+00    4.2844688086883957E+00    2.4126825941120735E+00
Au    4.4784314007887147E+00    4.3003331184433993E+00    2.4421153656952992E+00
Au    7.4300087076371186E+00    4.2978890805345760E+00    2.4428583178609542E+00
Au    1.0381869692025576E+01    4.2978890805065317E+00    2.4428583178953227E+00
Au    1.3333446998854097E+01    4.3003331184715963E+00    2.4421153655120458E+00
Au    1.6324600290835136E+01    4.2844688086652205E+00    2.4126825952399216E+00
Au    1.8822667025536490E-09    6.8557799328379927E+00    2.4148438251054243E+00
Au    2.9737536225235317E+00    6.8531091363459913E+00    2.4128847329682741E+00
Au    5.9519469044976736E+00    6.8560077056526332E+00    2.4427821464195709E+00
Au    8.9059392002761566E+00    6.8549618921483439E+00    2.4476113858618591E+00
Au    1.1859931495130745E+01    6.8560077055735826E+00    2.4427821465555564E+00
Au    1.4838124776920926E+01    6.8531091363058430E+00    2.4128847322929414E+00
Au    1.4873144524347077E+00    9.4267291290719815E+00    2.4154199548005151E+00
Au    4.4589507405340223E+00    9.4227466300566043E+00    2.4165739549965402E+00
Au    7.4286341432084901E+00    9.4137578121613554E+00    2.4421405898821202E+00
Au    1.0383244256609183E+01    9.4137578121810073E+00    2.4421405897960775E+00
Au    1.3352927659124422E+01    9.4227466300679819E+00    2.4165739549448348E+00
Au    1.6324563946751208E+01    9.4267291290839559E+00    2.4154199558833165E+00
Au    1.8259742016572805E-09    1.1996492833342836E+01    2.4168342736445005E+00
Au    2.9699963052577250E+00    1.1997574588373588E+01    2.4139580927763093E+00
Au    5.9413077923194271E+00    1.1993141282355031E+01    2.4147763290927551E+00
Au    8.9059392001930568E+00    1.1968633578861629E+01    2.4435116043873912E+00
Au    1.1870570607772146E+01    1.1993141282354330E+01    2.4147763292918136E+00
Au    1.4841882094570266E+01    1.1997574588413677E+01    2.4139580927326159E+00
Au    1.4840199075375593E+00    1.4569041637533347E+01    2.4158712731512262E+00
Au    4.4536888346144226E+00    1.4568828844415115E+01    2.4149211741323851E+00
Au    7.4237095790778422E+00    1.4567854347925145E+01    2.4123216205280302E+00
Au    1.0388168820890757E+01    1.4567854348107437E+01    2.4123216202607942E+00
Au    1.3358189565231353E+01    1.4568828844483756E+01    2.4149211739947005E+00
Au    1.6327858491818962E+01    1.4569041637587365E+01    2.4158712738865509E+00
Au    1.5527098454442009E-09   -1.3756035796562527E-04    4.8676673746750563E+00
Au    2.9683065773653907E+00   -8.7430339473176029E-04    4.8666396880208680E+00
Au    5.9336942789811831E+00   -3.9654306708164031E-03    4.8691100307946575E+00
Au    8.9059392000123712E+00   -3.9699570354272250E-03    4.8665513535230938E+00
Au    1.1878184120863640E+01   -3.9654310913354220E-03    4.8691100309086250E+00
Au    1.4843571822072077E+01   -8.7430282989623038E-04    4.8666396883086254E+00
Au    1.4812892760294505E+00    2.5683595514720263E+00    4.8681676311250941E+00
Au    4.4458745157915613E+00    2.5644780142168062E+00    4.8668213461042740E+00
Au    7.4041712366433599E+00    2.5352255653919360E+00    4.8677010762603965E+00
Au    1.0407707163439266E+01    2.5352255658387848E+00    4.8677010762994133E+00
Au    1.3366003883997454E+01    2.5644780142361960E+00    4.8668213462789920E+00
Au    1.6330589123523200E+01    2.5683595509596135E+00    4.8681676315947850E+00
Au    1.5279863563368755E-09    5.1415311406909705E+00    4.8654814066069196E+00
Au    2.9601169878910816E+00    5.1379485036786825E+00    4.8665899245785642E+00
Au    5.8921928507065058E+00    5.1147204683103658E+00    4.9811818687688145E+00
Au    8.9059391996890671E+00    5.0311017284497002E+00    4.8877441470041774E+00
Au    1.1919685549169204E+01    5.1147204678984188E+00    4.9811818684572859E+00
Au    1.4851761411467722E+01    5.1379485042582500E+00    4.8665899248235238E+00
Au    1.4808147484007190E+00    7.7135259550674435E+00    4.8684913516705581E+00
Au    4.4159258961304548E+00    7.7149281300468404E+00    4.8690773689155673E+00
Au    7.3251990074518654E+00    7.7675769400648162E+00    4.8864476392810916E+00
Au    1.0486679392180266E+01    7.7675769400978831E+00    4.8864476393802372E+00
Au    1.3395952503679021E+01    7.7149281302195201E+00    4.8690773693588012E+00
Au    1.6331063651318821E+01    7.7135259545444059E+00    4.8684913519449919E+00
Au    1.4424219605637946E-09    1.0281910729872301E+01    4.8655110821549989E+00
Au    2.9623093092978379E+00    1.0287608719031031E+01    4.8667777584917005E+00
Au    5.9141242741800344E+00    1.0314086659114723E+01    4.8685705944791895E+00
Au    8.9059392001930071E+00    1.0333633150455849E+01    4.9795785423870358E+00
Au    1.1897754125568536E+01    1.0314086658599086E+01    4.8685705944517546E+00
Au    1.4849569090005559E+01    1.0287608719605689E+01    4.8667777589180492E+00
Au    1.4858947081437286E+00    1.2855411960330091E+01    4.8658488159251334E+00
Au    4.4498016749008134E+00    1.2857745757237140E+01    4.8685961883004962E+00
Au    7.4194865198546616E+00    1.2864500306258728E+01    4.8656905204237146E+00
Au    1.0392391880416509E+01    1.2864500306725002E+01    4.8656905203661465E+00
Au    1.3362076725231438E+01    1.2857745757317188E+01    4.8685961884272411E+00
Au    1.6325983691689206E+01    1.2855411959917934E+01    4.8658488163189970E+00
Au    7.4122373387177252E+00    5.9912374969883624E+00    7.1092397172079727E+00
Au    1.0399641061287729E+01    5.9912374963605401E+00    7.1092397169936445E+00
Au    8.9059392000609439E+00    8.5812997950628791E+00    7.1081027602692135E+00
Au    8.9059392003637790E+00    6.8563235549655852E+00    9.2521065027223646E+00
Au    8.9059391996421748E+00    6.8554490842675477E+00    1.1800797800836513E+01
Au    8.9059392005652800E+00    6.8588984135381112E+00    1.4388745150964537E+01
Au    8.9059392002835445E+00    6.8557405734215093E+00    1.7017126126973363E+01
Au    8.9059392000812885E+00    6.8525990269672157E+00    1.9646012604223092E+01
Au    8.9059392000793256E+00    6.8561810112815635E+00    2.2227377572256106E+01
Au    8.9059391999624040E+00    6.8551565687636655E+00    2.4776867902382630E+01
Au    8.9059391996946839E+00    5.1337168478222983E+00    2.6927405201546573E+01
Au    7.4153999940661244E+00    7.7183166858127565E+00    2.6927144720756520E+01
Au    1.0396478406704549E+01    7.7183166848636233E+00    2.6927144720444044E+01
Au    1.6202399345682510E-09    1.7123405518335768E+00    2.9174644437654482E+01
Au    2.9666403192682891E+00    1.7136483627205714E+00    2.9169389341922987E+01
Au    5.9251266581310400E+00    1.7055905155589146E+00    2.9174576628569298E+01
Au    8.9059392002317050E+00    1.6873185194035820E+00    2.9161696884862799E+01
Au    1.1886751742037427E+01    1.7055905158229008E+00    2.9174576628586564E+01
Au    1.4845238080505695E+01    1.7136483624061500E+00    2.9169389341653357E+01
Au    1.4852175069317890E+00    4.2829829216541428E+00    2.9171276854887299E+01
Au    4.4457939846219023E+00    4.2805193259143000E+00    2.9180836081029447E+01
Au    7.3982135073132858E+00    4.2219911611286465E+00    2.9088810106534108E+01
Au    1.0413664892677719E+01    4.2219911609314984E+00    2.9088810106552806E+01
Au    1.3366084415124911E+01    4.2805193258339163E+00    2.9180836080656402E+01
Au    1.6326660892468613E+01    4.2829829218291566E+00    2.9171276854496728E+01
Au    1.6473984170834996E-09    6.8574328368253461E+00    2.9171962145825638E+01
Au    2.9565773081430788E+00    6.8529801292314376E+00    2.9173414200812910E+01
Au    5.8705026188165501E+00    6.8686583342032570E+00    2.9090511642403087E+01
Au    8.9059392001740250E+00    6.8583246321728337E+00    2.9251825395869805E+01
Au    1.1941375781077339E+01    6.8686583345423138E+00    2.9090511642105390E+01
Au    1.4855301091235642E+01    6.8529801289297350E+00    2.9173414200834792E+01
Au    1.4789115964624890E+00    9.4277337649502897E+00    2.9170886891180231E+01
Au    4.4294988337953525E+00    9.4410003933287978E+00    2.9159293179416565E+01
Au    7.3777402185189667E+00    9.4797271317387786E+00    2.9089242360537039E+01
Au    1.0434138181493916E+01    9.4797271315265235E+00    2.9089242360387392E+01
Au    1.3382379565893453E+01    9.4410003931457034E+00    2.9159293179264743E+01
Au    1.6332966803160929E+01    9.4277337652631985E+00    2.9170886890863525E+01
Au    1.4902639335027518E-09    1.1997949170766717E+01    2.9171543136436956E+01
Au    2.9667775332177770E+00    1.2000887096980291E+01    2.9171300022265989E+01
Au    5.9346487190339312E+00    1.2011921931553088E+01    2.9174659849557539E+01
Au    8.9059391999137798E+00    1.2007119264837137E+01    2.9183031668636687E+01
Au    1.1877229680728856E+01    1.2011921931803890E+01    2.9174659849372386E+01
Au    1.4845100866107346E+01    1.2000887096665702E+01    2.9171300021953201E+01
Au    1.4842888058944821E+00    1.4565942818596032E+01    2.9172431446262991E+01
Au    4.4521994952261466E+00    1.4569195744388317E+01    2.9171192919918667E+01
Au    7.4197076329271763E+00    1.4568879056985407E+01    2.9169452380450601E+01
Au    1.0392170767084604E+01    1.4568879056690275E+01    2.9169452380360756E+01
Au    1.3359678904588556E+01    1.4569195744419822E+01    2.9171192919772444E+01
Au    1.6327589593635992E+01    1.4565942818815287E+01    2.9172431445917468E+01
Au    1.6074736323244088E-09    7.6494821193495314E-05    3.1623379205848508E+01
Au    2.9688260160862532E+00    1.2218514087253809E-03    3.1622264011024079E+01
Au    5.9391499027737096E+00   -3.6741121097550453E-04    3.1625079509026516E+01
Au    8.9059392000280955E+00    9.5858534986481888E-03    3.1618989668385371E+01
Au    1.1872728497033517E+01   -3.6741131873641481E-04    3.1625079509372291E+01
Au    1.4843052383487072E+01    1.2218514954400845E-03    3.1622264010963814E+01
Au    1.4858060274514566E+00    2.5720066267378838E+00    3.1622812460824068E+01
Au    4.4560254493915208E+00    2.5705257658629610E+00    3.1626484518287704E+01
Au    7.4205421663566939E+00    2.5898404874628125E+00    3.1612031967672952E+01
Au    1.0391336233857306E+01    2.5898404875624084E+00    3.1612031967676980E+01
Au    1.3355852950537638E+01    2.5705257659602436E+00    3.1626484518239693E+01
Au    1.6326072372279224E+01    2.5720066266071009E+00    3.1622812460444454E+01
Au    1.5212222957453640E-09    5.1414693660104565E+00    3.1621586128063171E+01
Au    2.9700820308930473E+00    5.1434072831234543E+00    3.1626755218667025E+01
Au    5.9477182538593487E+00    5.1484451597500653E+00    3.1579980300463038E+01
Au    8.9059391999469586E+00    5.1485618138798719E+00    3.1604202222331878E+01
Au    1.1864160145909155E+01    5.1484451596087126E+00    3.1579980300349096E+01
Au    1.4841796368534769E+01    5.1434072832166153E+00    3.1626755218791985E+01
Au    1.4857224468569139E+00    7.7136561327302982E+00    3.1625283186295743E+01
Au    4.4690079904751769E+00    7.7037311894460796E+00    3.1613043934321546E+01
Au    7.4278719835437688E+00    7.7098011406166531E+00    3.1604327123628096E+01
Au    1.0384006416559053E+01    7.7098011406128295E+00    3.1604327123718107E+01
Au    1.3342870409089734E+01    7.7037311894596741E+00    3.1613043934585278E+01
Au    1.6326155952749566E+01    7.7136561326921811E+00    3.1625283185815292E+01
Au    1.4509414927777192E-09    1.0285059293371500E+01    3.1623789506976561E+01
Au    2.9783552569365601E+00    1.0277040668134655E+01    3.1621357623159547E+01
Au    5.9526850134699387E+00    1.0274748831039172E+01    3.1612211760819548E+01
Au    8.9059391998195032E+00    1.0270763907098285E+01    3.1581936734918504E+01
Au    1.1859193386196523E+01    1.0274748831021229E+01    3.1612211760673297E+01
Au    1.4833523142400344E+01    1.0277040668195564E+01    3.1621357622783798E+01
Au    1.4849633031964262E+00    1.2853591006338043E+01    3.1624436802048198E+01
Au    4.4515045462475875E+00    1.2852634428221952E+01    3.1624689183280459E+01
Au    7.4211486490875664E+00    1.2852430859753222E+01    3.1626520969673944E+01
Au    1.0390729750842411E+01    1.2852430859850351E+01    3.1626520969626611E+01
Au    1.3360373853316771E+01    1.2852634428189136E+01    3.1624689183305321E+01
Au    1.6326915096066305E+01    1.2853591006175556E+01    3.1624436801540995E+01
     &END COORD
     &KIND Au
       BASIS_SET TZVP-MOLOPT-SR-GTH-q11
       ELEMENT Au
       POTENTIAL GTH-PBE-q11
       &POTENTIAL
 1 0 10
  0.5900000000000000E+00 1  0.1051717881000000E+02
 3
  0.5438473300000000E+00 2  0.5786811030000000E+01 -0.2250679660000000E+01
  0.2905614950000000E+01
  0.6091729800000000E+00 2  0.4284048730000000E+01 -0.4071285200000000E+01
  0.4817209620000000E+01
  0.4373092200000000E+00 2 -0.7403281240000000E+01  0.3010193070000000E+01
 -0.3413238110000000E+01
         # Potential name:  GTH-PBE-Q11  for symbol:  AU
         # Potential read from the potential filename: /rds/general/user/jj1921/home/GTH_POTENTIALS
       &END POTENTIAL
     &END KIND
     &TOPOLOGY
       COORD_FILE_NAME junction_65.xyz
       COORD_FILE_FORMAT  XYZ
       NUMBER_OF_ATOMS  193
       MULTIPLE_UNIT_CELL  1 1 1
     &END TOPOLOGY
   &END SUBSYS
   &PRINT
     &TOTAL_NUMBERS  ON
     &END TOTAL_NUMBERS
   &END PRINT
 &END FORCE_EVAL
