 # Version information for this restart file 
 # current date 2022-04-26 02:54:38.482
 # current working dir /rds/general/user/jj1921/home/junction/ortho/cell_65
 # Program compiled at                              Thu 12 Jul 13:52:12 BST 2018
 # Program compiled on                                      build-2.hpc.ic.ac.uk
 # Program compiled for                                       Linux-x86-64-intel
 # Source code revision number                                         svn:18464
 &GLOBAL
   PRINT_LEVEL  MEDIUM
   PROJECT_NAME Au_junction
   RUN_TYPE  CELL_OPT
 &END GLOBAL
 &MOTION
   &CELL_OPT
     OPTIMIZER  BFGS
     STEP_START_VAL  4
     TYPE  DIRECT_CELL_OPT
     KEEP_ANGLES  T
     KEEP_SYMMETRY  T
     CONSTRAINT  XY
   &END CELL_OPT
   &CONSTRAINT
     &FIXED_ATOMS
       COMPONENTS_TO_FIX  XYZ
       LIST  1..36
     &END FIXED_ATOMS
   &END CONSTRAINT
   &PRINT
     &TRAJECTORY  SILENT
       &EACH
         CELL_OPT  1
       &END EACH
     &END TRAJECTORY
   &END PRINT
 &END MOTION
 &FORCE_EVAL
   METHOD  QS
   STRESS_TENSOR  ANALYTICAL
   &DFT
     BASIS_SET_FILE_NAME /rds/general/user/jj1921/home/BASIS_COM_MOLOPT_GTH
     POTENTIAL_FILE_NAME /rds/general/user/jj1921/home/GTH_POTENTIALS
     &SCF
       MAX_SCF  500
       EPS_SCF     9.9999999999999995E-08
       CHOLESKY  INVERSE
       SCF_GUESS  ATOMIC
       ADDED_MOS  20
       &DIAGONALIZATION  T
         ALGORITHM  STANDARD
       &END DIAGONALIZATION
       &SMEAR  T
         METHOD  FERMI_DIRAC
         ELECTRONIC_TEMPERATURE     3.0000000000000000E+02
       &END SMEAR
       &MIXING  T
         METHOD  BROYDEN_MIXING
         ALPHA     4.0000000000000002E-01
         BETA     5.0000000000000000E-01
         NBUFFER  8
       &END MIXING
     &END SCF
     &QS
       EPS_DEFAULT     1.0000000000000000E-14
       METHOD  GPW
     &END QS
     &MGRID
       NGRIDS  4
       CUTOFF     5.0000000000000000E+02
       REL_CUTOFF     4.0000000000000000E+01
     &END MGRID
     &XC
       DENSITY_CUTOFF     1.0000000000000000E-10
       GRADIENT_CUTOFF     1.0000000000000000E-10
       TAU_CUTOFF     1.0000000000000000E-10
       &XC_FUNCTIONAL  NO_SHORTCUT
         &PBE  T
         &END PBE
       &END XC_FUNCTIONAL
     &END XC
     &KPOINTS
       SCHEME MONKHORST-PACK 4 4 1
       FULL_GRID  T
     &END KPOINTS
   &END DFT
   &SUBSYS
     &CELL
       A     1.7811878396732897E+01    0.0000000000000000E+00    0.0000000000000000E+00
       B     0.0000000000000000E+00    1.5425539180689926E+01    0.0000000000000000E+00
       C     0.0000000000000000E+00    0.0000000000000000E+00    3.4014422881071006E+01
       PERIODIC  XYZ
       MULTIPLE_UNIT_CELL  1 1 1
       SYMMETRY  ORTHORHOMBIC
     &END CELL
     &COORD
Au    1.4843231999999995E+00    8.5697440000000003E-01    0.0000000000000000E+00
Au    4.4529695999999985E+00    8.5697440000000003E-01    0.0000000000000000E+00
Au    7.4216159999999975E+00    8.5697440000000003E-01    0.0000000000000000E+00
Au    1.0390262399999997E+01    8.5697440000000003E-01    0.0000000000000000E+00
Au    1.3358908799999996E+01    8.5697440000000003E-01    0.0000000000000000E+00
Au    1.6327555199999995E+01    8.5697440000000003E-01    0.0000000000000000E+00
Au    0.0000000000000000E+00    3.4278976000000001E+00    0.0000000000000000E+00
Au    2.9686463999999990E+00    3.4278976000000001E+00    0.0000000000000000E+00
Au    5.9372927999999980E+00    3.4278976000000001E+00    0.0000000000000000E+00
Au    8.9059391999999971E+00    3.4278976000000001E+00    0.0000000000000000E+00
Au    1.1874585599999996E+01    3.4278976000000001E+00    0.0000000000000000E+00
Au    1.4843231999999995E+01    3.4278976000000001E+00    0.0000000000000000E+00
Au    1.4843231999999995E+00    5.9988207899999999E+00    0.0000000000000000E+00
Au    4.4529695999999985E+00    5.9988207899999999E+00    0.0000000000000000E+00
Au    7.4216159999999975E+00    5.9988207899999999E+00    0.0000000000000000E+00
Au    1.0390262399999997E+01    5.9988207899999999E+00    0.0000000000000000E+00
Au    1.3358908799999996E+01    5.9988207899999999E+00    0.0000000000000000E+00
Au    1.6327555199999995E+01    5.9988207899999999E+00    0.0000000000000000E+00
Au    0.0000000000000000E+00    8.5697439900000010E+00    0.0000000000000000E+00
Au    2.9686463999999990E+00    8.5697439900000010E+00    0.0000000000000000E+00
Au    5.9372927999999980E+00    8.5697439900000010E+00    0.0000000000000000E+00
Au    8.9059391999999971E+00    8.5697439900000010E+00    0.0000000000000000E+00
Au    1.1874585599999996E+01    8.5697439900000010E+00    0.0000000000000000E+00
Au    1.4843231999999995E+01    8.5697439900000010E+00    0.0000000000000000E+00
Au    1.4843231999999995E+00    1.1140667190000000E+01    0.0000000000000000E+00
Au    4.4529695999999985E+00    1.1140667190000000E+01    0.0000000000000000E+00
Au    7.4216159999999975E+00    1.1140667190000000E+01    0.0000000000000000E+00
Au    1.0390262399999997E+01    1.1140667190000000E+01    0.0000000000000000E+00
Au    1.3358908799999996E+01    1.1140667190000000E+01    0.0000000000000000E+00
Au    1.6327555199999995E+01    1.1140667190000000E+01    0.0000000000000000E+00
Au    0.0000000000000000E+00    1.3711590380000002E+01    0.0000000000000000E+00
Au    2.9686463999999990E+00    1.3711590380000002E+01    0.0000000000000000E+00
Au    5.9372927999999980E+00    1.3711590380000002E+01    0.0000000000000000E+00
Au    8.9059391999999971E+00    1.3711590380000002E+01    0.0000000000000000E+00
Au    1.1874585599999996E+01    1.3711590380000002E+01    0.0000000000000000E+00
Au    1.4843231999999995E+01    1.3711590380000002E+01    0.0000000000000000E+00
Au    1.2341201946078831E-09    1.7155207533435377E+00    2.4169036776459034E+00
Au    2.9687927996630070E+00    1.7132623370899136E+00    2.4155682083177799E+00
Au    5.9370186279059229E+00    1.7159744676901525E+00    2.4165982336482665E+00
Au    8.9059391999897279E+00    1.7171443358705953E+00    2.4187749273842063E+00
Au    1.1874859772062864E+01    1.7159744677325017E+00    2.4165982336186853E+00
Au    1.4843085599576378E+01    1.7132623370705125E+00    2.4155682083857255E+00
Au    1.4838779029911426E+00    4.2847536337161971E+00    2.4152905428332030E+00
Au    4.4622788165558287E+00    4.2908212450390613E+00    2.4272517627870962E+00
Au    7.4279419500074830E+00    4.2881475457512312E+00    2.4252605930530642E+00
Au    1.0383936449899650E+01    4.2881475457340406E+00    2.4252605930494373E+00
Au    1.3349599583313337E+01    4.2908212450198580E+00    2.4272517626674057E+00
Au    1.6328000496477884E+01    4.2847536336809444E+00    2.4152905430225537E+00
Au    1.2286598013653926E-09    6.8556039474461246E+00    2.4160549047563391E+00
Au    2.9706814694281305E+00    6.8549293781102172E+00    2.4160183724427915E+00
Au    5.9425936612381030E+00    6.8595169930142275E+00    2.4254468933578961E+00
Au    8.9059391999705451E+00    6.8549880225708950E+00    2.4171856051540930E+00
Au    1.1869284738859537E+01    6.8595169929827087E+00    2.4254468933778739E+00
Au    1.4841196929988209E+01    6.8549293780817324E+00    2.4160183726608646E+00
Au    1.4856181323327531E+00    9.4271150348642401E+00    2.4168272032290727E+00
Au    4.4562226843212862E+00    9.4246409647602345E+00    2.4179111336851529E+00
Au    7.4209050611811556E+00    9.4202004739321357E+00    2.4251166196981719E+00
Au    1.0390973338743894E+01    9.4202004739295209E+00    2.4251166196959568E+00
Au    1.3355655715543316E+01    9.4246409647556106E+00    2.4179111339086674E+00
Au    1.6326260267115035E+01    9.4271150348454125E+00    2.4168272036180607E+00
Au    1.3190369766815098E-09    1.1997128668408109E+01    2.4168937112316167E+00
Au    2.9690150907303279E+00    1.1997710455841725E+01    2.4161692186130304E+00
Au    5.9383742312686065E+00    1.1995399978977998E+01    2.4170775451817579E+00
Au    8.9059392000746715E+00    1.1987130040439393E+01    2.4279117926960190E+00
Au    1.1873504168848472E+01    1.1995399979005663E+01    2.4170775451547777E+00
Au    1.4842863308667335E+01    1.1997710455845105E+01    2.4161692185557171E+00
Au    1.4841378591726624E+00    1.4568773599214049E+01    2.4168820226026244E+00
Au    4.4529398910502573E+00    1.4568827858488614E+01    2.4165297585546379E+00
Au    7.4220939291573309E+00    1.4568996183950382E+01    2.4154989652247219E+00
Au    1.0389784470841382E+01    1.4568996183955189E+01    2.4154989652032097E+00
Au    1.3358938508910001E+01    1.4568827858541676E+01    2.4165297585379522E+00
Au    1.6327740540392110E+01    1.4568773599197957E+01    2.4168820228460506E+00
Au    1.0030827441082461E-09    3.4978374101600024E-04    4.8663096012677940E+00
Au    2.9688991609340674E+00    7.3976913870591965E-05    4.8658760740244782E+00
Au    5.9368982343458967E+00   -5.9705722529729212E-04    4.8671084084113918E+00
Au    8.9059392000184960E+00   -6.0380111751906496E-04    4.8659408005861149E+00
Au    1.1874980165642297E+01   -5.9705728538309868E-04    4.8671084084472298E+00
Au    1.4842979238453616E+01    7.3976955122793299E-05    4.8658760741736327E+00
Au    1.4830703991950798E+00    2.5699082225002061E+00    4.8667406325460822E+00
Au    4.4513002977672684E+00    2.5680667399457180E+00    4.8653771074176673E+00
Au    7.4161518168980010E+00    2.5576315994694214E+00    4.8654557331132828E+00
Au    1.0395726583083322E+01    2.5576315995490093E+00    4.8654557331200872E+00
Au    1.3360578102182739E+01    2.5680667399316750E+00    4.8653771074879524E+00
Au    1.6328808000506690E+01    2.5699082225225278E+00    4.8667406330604965E+00
Au    1.0005203981232040E-09    5.1415642845742626E+00    4.8658818426702286E+00
Au    2.9655388115245827E+00    5.1413268672715455E+00    4.8654830436412713E+00
Au    5.9303374571684699E+00    5.1373481660600895E+00    4.9347324977754088E+00
Au    8.9059391999841520E+00    5.0973089649496970E+00    4.9081079493654727E+00
Au    1.1881540942846986E+01    5.1373481660124707E+00    4.9347324976095299E+00
Au    1.4846339587896679E+01    5.1413268673573409E+00    4.8654830438400900E+00
Au    1.4847564624661804E+00    7.7134106183955007E+00    4.8669012357203210E+00
Au    4.4401816875563380E+00    7.7144506256877605E+00    4.8659501421429034E+00
Au    7.3823089892337306E+00    7.7351622287234196E+00    4.9067640360864422E+00
Au    1.0429569410698505E+01    7.7351622288187825E+00    4.9067640360358880E+00
Au    1.3371696712463613E+01    7.7144506257223693E+00    4.8659501422819504E+00
Au    1.6327121937251736E+01    7.7134106184543141E+00    4.8669012362356403E+00
Au    9.8298468023865879E-10    1.0282287450744573E+01    4.8657456948304585E+00
Au    2.9672278016348694E+00    1.0284779661969301E+01    4.8660023294848447E+00
Au    5.9281134472230876E+00    1.0293665707363205E+01    4.8657282690216856E+00
Au    8.9059391999887971E+00    1.0290449001613934E+01    4.9345964127772097E+00
Au    1.1883764952751482E+01    1.0293665707306946E+01    4.8657282690621377E+00
Au    1.4844650597745821E+01    1.0284779662015881E+01    4.8660023296542834E+00
Au    1.4859834475894862E+00    1.2854666772754380E+01    4.8657130594769153E+00
Au    4.4522102900704059E+00    1.2854256131050168E+01    4.8666289996224128E+00
Au    7.4204369896375395E+00    1.2858583362511903E+01    4.8650912252130185E+00
Au    1.0391441410511572E+01    1.2858583362565858E+01    4.8650912251725336E+00
Au    1.3359668110021481E+01    1.2854256131086027E+01    4.8666289996439343E+00
Au    1.6325894952224544E+01    1.2854666772808097E+01    4.8657130599519691E+00
Au    7.4596208066481662E+00    6.0198924538576160E+00    7.2150470868425831E+00
Au    1.0352257593362227E+01    6.0198924536818668E+00    7.2150470868819303E+00
Au    8.9059391999503337E+00    8.5262906688496169E+00    7.2143327826537815E+00
Au    8.9059392000182811E+00    6.8558481283354276E+00    9.3115189982581867E+00
Au    8.9059391998432922E+00    6.8555555865749627E+00    1.1996792342913411E+01
Au    8.9059392001758511E+00    6.8571082699864743E+00    1.4532083319732022E+01
Au    8.9059392000004447E+00    6.8557428722631943E+00    1.7006812154879320E+01
Au    8.9059391999109128E+00    6.8544440388576762E+00    1.9481298989315750E+01
Au    8.9059392000039779E+00    6.8560973355547166E+00    2.2015190876308200E+01
Au    8.9059391999477846E+00    6.8558324016078345E+00    2.4698251410047341E+01
Au    8.9059391999256707E+00    5.1860177188365908E+00    2.6798790107085697E+01
Au    7.4605011179074401E+00    7.6911063941313680E+00    2.6797705523959912E+01
Au    1.0351377282337781E+01    7.6911063938689876E+00    2.6797705523935452E+01
Au    1.0334293685629475E-09    1.7134146035193569E+00    2.9149441817886093E+01
Au    2.9689234390124719E+00    1.7149275818638241E+00    2.9147160088547459E+01
Au    5.9324870296230108E+00    1.7119011472670738E+00    2.9150320162759115E+01
Au    8.9059392000651734E+00    1.7044621126905193E+00    2.9144149395191000E+01
Au    1.1879391370544294E+01    1.7119011472727705E+00    2.9150320162768274E+01
Au    1.4842954960520995E+01    1.7149275818730143E+00    2.9147160088397214E+01
Au    1.4862512126029603E+00    4.2840622980136542E+00    2.9147835599768275E+01
Au    4.4481501994767276E+00    4.2819071949749405E+00    2.9153763128046052E+01
Au    7.4233625841925583E+00    4.2612528311618032E+00    2.9094049755063175E+01
Au    1.0388515815773285E+01    4.2612528311126194E+00    2.9094049755076977E+01
Au    1.3363728200416153E+01    4.2819071949522520E+00    2.9153763127992832E+01
Au    1.6325627187086141E+01    4.2840622979185428E+00    2.9147835599289373E+01
Au    9.3559262689961974E-10    6.8571354301435585E+00    2.9148070204598987E+01
Au    2.9653207592363446E+00    6.8543605485341663E+00    2.9149462143696415E+01
Au    5.9170363331640798E+00    6.8697660825811440E+00    2.9095379853160175E+01
Au    8.9059391999603505E+00    6.8567412303808917E+00    2.9138096267095463E+01
Au    1.1894842066891160E+01    6.8697660826680176E+00    2.9095379853258901E+01
Au    1.4846557640197888E+01    6.8543605485512060E+00    2.9149462143435287E+01
Au    1.4826143190017638E+00    9.4268499748967187E+00    2.9147776035890477E+01
Au    4.4451900245117164E+00    9.4314464095335886E+00    2.9143275352477286E+01
Au    7.3997146894019528E+00    9.4375894272177199E+00    2.9094549480111112E+01
Au    1.0412163710623711E+01    9.4375894272074845E+00    2.9094549480109123E+01
Au    1.3366688375386460E+01    9.4314464094832093E+00    2.9143275352551655E+01
Au    1.6329264080735644E+01    9.4268499748328569E+00    2.9147776035462964E+01
Au    9.7369867285186349E-10    1.1997782702042334E+01    2.9148281483157490E+01
Au    2.9684934048855589E+00    1.1998398819080380E+01    2.9148134653479655E+01
Au    5.9372571843666986E+00    1.2002577677614159E+01    2.9150247148929861E+01
Au    8.9059391999551512E+00    1.2003555827992969E+01    2.9154554095347216E+01
Au    1.1874621215600103E+01    1.2002577677607160E+01    2.9150247148918886E+01
Au    1.4843384994466138E+01    1.1998398819074602E+01    2.9148134653260815E+01
Au    1.4840016676663084E+00    1.4567232507616778E+01    2.9148673936976873E+01
Au    4.4535719021576892E+00    1.4568781656642731E+01    2.9148014605690854E+01
Au    7.4214167967476090E+00    1.4568575367349254E+01    2.9147085108667596E+01
Au    1.0390461603248168E+01    1.4568575367320854E+01    2.9147085108625525E+01
Au    1.3358306497751114E+01    1.4568781656654844E+01    2.9148014605666170E+01
Au    1.6327876732039279E+01    1.4567232507519098E+01    2.9148673936563632E+01
Au    1.2407297773889413E-09   -5.0873867921178556E-04    3.1597624120929225E+01
Au    2.9690259549367517E+00    8.2750611163786127E-04    3.1597399882825680E+01
Au    5.9373023741768671E+00   -4.8902758185499556E-04    3.1598526805122461E+01
Au    8.9059392000105682E+00    3.1708389737654490E-03    3.1595096054354677E+01
Au    1.1874576025814648E+01   -4.8902759370259821E-04    3.1598526805187106E+01
Au    1.4842852444336083E+01    8.2750611010555422E-04    3.1597399882815417E+01
Au    1.4853780071552098E+00    2.5717484693776420E+00    3.1597738369710278E+01
Au    4.4541823125409712E+00    2.5700533206847629E+00    3.1598647830580585E+01
Au    7.4196626986177492E+00    2.5774802797244378E+00    3.1594434883462039E+01
Au    1.0392215701503801E+01    2.5774802797867085E+00    3.1594434883456348E+01
Au    1.3357696087473183E+01    2.5700533207019900E+00    3.1598647830705360E+01
Au    1.6326500392563432E+01    2.5717484693910904E+00    3.1597738369802027E+01
Au    1.1330245561171841E-09    5.1415277251452585E+00    3.1597336803244403E+01
Au    2.9685566339310445E+00    5.1425160950165862E+00    3.1599013017867534E+01
Au    5.9395052435770053E+00    5.1432932040375992E+00    3.1581584930645668E+01
Au    8.9059391999189401E+00    5.1506129669052951E+00    3.1595060502732828E+01
Au    1.1872373156490475E+01    5.1432932040003490E+00    3.1581584930618561E+01
Au    1.4843321765329035E+01    5.1425160950172399E+00    3.1599013017669364E+01
Au    1.4842797110360391E+00    7.7128522307252325E+00    3.1598750376508338E+01
Au    4.4577338680986065E+00    7.7088352545013619E+00    3.1595068281372168E+01
Au    7.4294814801202165E+00    7.7086527969657528E+00    3.1594941618305892E+01
Au    1.0382396919875774E+01    7.7086527969545457E+00    3.1594941618265029E+01
Au    1.3354144531927131E+01    7.7088352544868251E+00    3.1595068281484838E+01
Au    1.6327598688624519E+01    7.7128522307688261E+00    3.1598750376379961E+01
Au    1.1996230691102927E-09    1.0284225486087911E+01    3.1597832308892080E+01
Au    2.9721606697871574E+00    1.0281242472460931E+01    3.1596570624878815E+01
Au    5.9428892553654196E+00    1.0281760216119590E+01    3.1594660938891948E+01
Au    8.9059391999628534E+00    1.0280915480929183E+01    3.1582486934734309E+01
Au    1.1868989144557869E+01    1.0281760216130396E+01    3.1594660938870543E+01
Au    1.4839717729356433E+01    1.0281242472479777E+01    3.1596570624730656E+01
Au    1.4843454074818720E+00    1.2854585453076810E+01    3.1598315329533744E+01
Au    4.4522809250241799E+00    1.2854403596044076E+01    3.1598157078225707E+01
Au    7.4210382323878559E+00    1.2853581576956103E+01    3.1598558721700531E+01
Au    1.0390840167585223E+01    1.2853581576968173E+01    3.1598558721619099E+01
Au    1.3359597474849213E+01    1.2854403596008455E+01    3.1598157078239680E+01
Au    1.6327532992059986E+01    1.2854585453082560E+01    3.1598315329441895E+01
     &END COORD
     &KIND Au
       BASIS_SET TZVP-MOLOPT-SR-GTH-q11
       ELEMENT Au
       POTENTIAL GTH-PBE-q11
       &POTENTIAL
 1 0 10
  0.5900000000000000E+00 1  0.1051717881000000E+02
 3
  0.5438473300000000E+00 2  0.5786811030000000E+01 -0.2250679660000000E+01
  0.2905614950000000E+01
  0.6091729800000000E+00 2  0.4284048730000000E+01 -0.4071285200000000E+01
  0.4817209620000000E+01
  0.4373092200000000E+00 2 -0.7403281240000000E+01  0.3010193070000000E+01
 -0.3413238110000000E+01
         # Potential name:  GTH-PBE-Q11  for symbol:  AU
         # Potential read from the potential filename: /rds/general/user/jj1921/home/GTH_POTENTIALS
       &END POTENTIAL
     &END KIND
     &TOPOLOGY
       COORD_FILE_NAME junction_65.xyz
       COORD_FILE_FORMAT  XYZ
       NUMBER_OF_ATOMS  193
       MULTIPLE_UNIT_CELL  1 1 1
     &END TOPOLOGY
   &END SUBSYS
   &PRINT
     &TOTAL_NUMBERS  ON
     &END TOTAL_NUMBERS
   &END PRINT
 &END FORCE_EVAL
