 # Version information for this restart file 
 # current date 2022-05-08 07:19:05.900
 # current working dir /rds/general/user/jj1921/home/junction/ortho/cell_65
 # Program compiled at                              Thu 12 Jul 13:52:12 BST 2018
 # Program compiled on                                      build-2.hpc.ic.ac.uk
 # Program compiled for                                       Linux-x86-64-intel
 # Source code revision number                                         svn:18464
 &GLOBAL
   PRINT_LEVEL  MEDIUM
   PROJECT_NAME Au_junction
   RUN_TYPE  CELL_OPT
 &END GLOBAL
 &MOTION
   &CELL_OPT
     OPTIMIZER  BFGS
     STEP_START_VAL  185
     TYPE  DIRECT_CELL_OPT
     KEEP_ANGLES  T
     KEEP_SYMMETRY  T
     CONSTRAINT  XY
   &END CELL_OPT
   &CONSTRAINT
     &FIXED_ATOMS
       COMPONENTS_TO_FIX  XYZ
       LIST  1..36
     &END FIXED_ATOMS
   &END CONSTRAINT
   &PRINT
     &TRAJECTORY  SILENT
       &EACH
         CELL_OPT  1
       &END EACH
     &END TRAJECTORY
   &END PRINT
 &END MOTION
 &FORCE_EVAL
   METHOD  QS
   STRESS_TENSOR  ANALYTICAL
   &DFT
     BASIS_SET_FILE_NAME /rds/general/user/jj1921/home/BASIS_COM_MOLOPT_GTH
     POTENTIAL_FILE_NAME /rds/general/user/jj1921/home/GTH_POTENTIALS
     &SCF
       MAX_SCF  500
       EPS_SCF     9.9999999999999995E-08
       CHOLESKY  INVERSE
       SCF_GUESS  ATOMIC
       ADDED_MOS  20
       &DIAGONALIZATION  T
         ALGORITHM  STANDARD
       &END DIAGONALIZATION
       &SMEAR  T
         METHOD  FERMI_DIRAC
         ELECTRONIC_TEMPERATURE     3.0000000000000000E+02
       &END SMEAR
       &MIXING  T
         METHOD  BROYDEN_MIXING
         ALPHA     4.0000000000000002E-01
         BETA     5.0000000000000000E-01
         NBUFFER  8
       &END MIXING
     &END SCF
     &QS
       EPS_DEFAULT     1.0000000000000000E-14
       METHOD  GPW
     &END QS
     &MGRID
       NGRIDS  4
       CUTOFF     5.0000000000000000E+02
       REL_CUTOFF     4.0000000000000000E+01
     &END MGRID
     &XC
       DENSITY_CUTOFF     1.0000000000000000E-10
       GRADIENT_CUTOFF     1.0000000000000000E-10
       TAU_CUTOFF     1.0000000000000000E-10
       &XC_FUNCTIONAL  NO_SHORTCUT
         &PBE  T
         &END PBE
       &END XC_FUNCTIONAL
     &END XC
     &KPOINTS
       SCHEME MONKHORST-PACK 4 4 1
       FULL_GRID  T
     &END KPOINTS
   &END DFT
   &SUBSYS
     &CELL
       A     1.7811878396732908E+01    0.0000000000000000E+00    0.0000000000000000E+00
       B     0.0000000000000000E+00    1.5425539180689926E+01    0.0000000000000000E+00
       C     0.0000000000000000E+00    0.0000000000000000E+00    3.2270371391113386E+01
       PERIODIC  XYZ
       MULTIPLE_UNIT_CELL  1 1 1
       SYMMETRY  ORTHORHOMBIC
     &END CELL
     &COORD
Au    1.4843231999999993E+00    8.5697440000000025E-01    0.0000000000000000E+00
Au    4.4529695999999976E+00    8.5697440000000025E-01    0.0000000000000000E+00
Au    7.4216159999999967E+00    8.5697440000000025E-01    0.0000000000000000E+00
Au    1.0390262400000001E+01    8.5697440000000025E-01    0.0000000000000000E+00
Au    1.3358908799999995E+01    8.5697440000000025E-01    0.0000000000000000E+00
Au    1.6327555199999992E+01    8.5697440000000025E-01    0.0000000000000000E+00
Au    0.0000000000000000E+00    3.4278976000000010E+00    0.0000000000000000E+00
Au    2.9686463999999986E+00    3.4278976000000010E+00    0.0000000000000000E+00
Au    5.9372927999999972E+00    3.4278976000000010E+00    0.0000000000000000E+00
Au    8.9059391999999953E+00    3.4278976000000010E+00    0.0000000000000000E+00
Au    1.1874585599999994E+01    3.4278976000000010E+00    0.0000000000000000E+00
Au    1.4843231999999993E+01    3.4278976000000010E+00    0.0000000000000000E+00
Au    1.4843231999999993E+00    5.9988207899999999E+00    0.0000000000000000E+00
Au    4.4529695999999976E+00    5.9988207899999999E+00    0.0000000000000000E+00
Au    7.4216159999999967E+00    5.9988207899999999E+00    0.0000000000000000E+00
Au    1.0390262400000001E+01    5.9988207899999999E+00    0.0000000000000000E+00
Au    1.3358908799999995E+01    5.9988207899999999E+00    0.0000000000000000E+00
Au    1.6327555199999992E+01    5.9988207899999999E+00    0.0000000000000000E+00
Au    0.0000000000000000E+00    8.5697439900000028E+00    0.0000000000000000E+00
Au    2.9686463999999986E+00    8.5697439900000028E+00    0.0000000000000000E+00
Au    5.9372927999999972E+00    8.5697439900000028E+00    0.0000000000000000E+00
Au    8.9059391999999953E+00    8.5697439900000028E+00    0.0000000000000000E+00
Au    1.1874585599999994E+01    8.5697439900000028E+00    0.0000000000000000E+00
Au    1.4843231999999993E+01    8.5697439900000028E+00    0.0000000000000000E+00
Au    1.4843231999999993E+00    1.1140667190000002E+01    0.0000000000000000E+00
Au    4.4529695999999976E+00    1.1140667190000002E+01    0.0000000000000000E+00
Au    7.4216159999999967E+00    1.1140667190000002E+01    0.0000000000000000E+00
Au    1.0390262400000001E+01    1.1140667190000002E+01    0.0000000000000000E+00
Au    1.3358908799999995E+01    1.1140667190000002E+01    0.0000000000000000E+00
Au    1.6327555199999992E+01    1.1140667190000002E+01    0.0000000000000000E+00
Au    0.0000000000000000E+00    1.3711590380000011E+01    0.0000000000000000E+00
Au    2.9686463999999986E+00    1.3711590380000011E+01    0.0000000000000000E+00
Au    5.9372927999999972E+00    1.3711590380000011E+01    0.0000000000000000E+00
Au    8.9059391999999953E+00    1.3711590380000011E+01    0.0000000000000000E+00
Au    1.1874585599999994E+01    1.3711590380000011E+01    0.0000000000000000E+00
Au    1.4843231999999993E+01    1.3711590380000011E+01    0.0000000000000000E+00
Au    4.4115998598788803E-07    1.7046001812227360E+00    2.4133746690399445E+00
Au    2.9546027761564684E+00    1.7052604174639503E+00    2.4088870917350600E+00
Au    5.9228104058139470E+00    1.7111678538408792E+00    2.4061365928528993E+00
Au    8.9059396038722483E+00    1.7280459191279962E+00    2.4187051379809410E+00
Au    1.1889068961411466E+01    1.7111673546382848E+00    2.4061359939812594E+00
Au    1.4857276018022821E+01    1.7052605849956526E+00    2.4088879005863184E+00
Au    1.4785372066035596E+00    4.2732179202998903E+00    2.4093518518184887E+00
Au    4.4477445881898161E+00    4.2791164285497931E+00    2.4274444550550545E+00
Au    7.4077026726581323E+00    4.2865836575208709E+00    2.4189131713592515E+00
Au    1.0404177401347841E+01    4.2865846766769806E+00    2.4189166228484438E+00
Au    1.3364132589565587E+01    4.2791175571338860E+00    2.4274452159433317E+00
Au    1.6333342509699154E+01    4.2732181679242780E+00    2.4093522067090438E+00
Au    1.0452280711236431E-06    6.8473205837609177E+00    2.4089123132491510E+00
Au    2.9616617641780376E+00    6.8450016901623805E+00    2.4067290136611486E+00
Au    5.9297933768341302E+00    6.8441328880384669E+00    2.4215649092878033E+00
Au    8.9059397362685147E+00    6.8571717102371910E+00    2.4796749957988142E+00
Au    1.1882084656587383E+01    6.8441345180620514E+00    2.4215703989444628E+00
Au    1.4850218249138290E+01    6.8450007036244331E+00    2.4067287127950920E+00
Au    1.4896559699128087E+00    9.4185293391980185E+00    2.4100907446351756E+00
Au    4.4599135209460901E+00    9.4193743124079798E+00    2.4141158069230491E+00
Au    7.4268220160120109E+00    9.4361544802784323E+00    2.4251223422513082E+00
Au    1.0385059278844951E+01    9.4361521349089195E+00    2.4251248038619626E+00
Au    1.3351966019493469E+01    9.4193750775555181E+00    2.4141177468537083E+00
Au    1.6322222612993812E+01    9.4185294627976308E+00    2.4100896715459110E+00
Au   -2.9062011777647499E-07    1.1985124519580818E+01    2.4110938507754276E+00
Au    2.9701144551794885E+00    1.1992187805513771E+01    2.4080640682341308E+00
Au    5.9349045297765697E+00    1.2007522758804413E+01    2.4048373071131839E+00
Au    8.9059402544804449E+00    1.1996709542409707E+01    2.4309842823484984E+00
Au    1.1876974382618682E+01    1.2007523142739466E+01    2.4048374198038180E+00
Au    1.4841764545406901E+01    1.1992188889703488E+01    2.4080627883061108E+00
Au    1.4805016683811298E+00    1.4558513799868923E+01    2.4102387467294371E+00
Au    4.4446210162216024E+00    1.4569968464579745E+01    2.4082881438733428E+00
Au    7.4214273079331230E+00    1.4580200535602581E+01    2.4041979340339972E+00
Au    1.0390450798815744E+01    1.4580201354894195E+01    2.4041978123537882E+00
Au    1.3367258645031381E+01    1.4569968716936716E+01    2.4082873794254702E+00
Au    1.6331377024364595E+01    1.4558513872135068E+01    2.4102379304541990E+00
Au    7.6244494495220848E-07   -1.8123929867097502E-02    4.8673092597118996E+00
Au    2.9394191691345766E+00   -1.9655203593317804E-02    4.8718484133573527E+00
Au    5.9018717866250210E+00   -2.3573780259942601E-02    4.8676458235782230E+00
Au    8.9059397210709985E+00   -8.6206939628729953E-03    4.8551225556937361E+00
Au    1.1910008690361236E+01   -2.3572981578265113E-02    4.8676446181571933E+00
Au    1.4872459834335134E+01   -1.9653859275428124E-02    4.8718494089080817E+00
Au    1.4606994447599018E+00    2.5471208337632736E+00    4.8745438003319084E+00
Au    4.3929675296320934E+00    2.5147760875629608E+00    4.8643381837798145E+00
Au    7.3598981600181030E+00    2.4756870621235123E+00    4.8573773061820900E+00
Au    1.0451982320733810E+01    2.4756877492855005E+00    4.8573778841230029E+00
Au    1.3418909892426559E+01    2.5147803036831946E+00    4.8643395825482942E+00
Au    1.6351180141845042E+01    2.5471207069963913E+00    4.8745416475956009E+00
Au    7.6667207626899398E-07    5.1288498147721455E+00    4.8691730318637667E+00
Au    2.9038693998696119E+00    5.1202746662073766E+00    4.8645659876461140E+00
Au    5.8043873517012763E+00    5.0602776826424529E+00    4.9030639304406325E+00
Au    8.9059403850227987E+00    4.9195062076187197E+00    4.7892519721902822E+00
Au    1.2007485719802464E+01    5.0602804819260427E+00    4.9030771400768254E+00
Au    1.4908006547494788E+01    5.1202745854767313E+00    4.8645658970361554E+00
Au    1.4544681085995204E+00    7.7131626644255915E+00    4.8667379599211333E+00
Au    4.3441239583240874E+00    7.7165204896599011E+00    4.8593640141262142E+00
Au    7.2333767722804208E+00    7.8092427012952443E+00    4.7993537322774795E+00
Au    1.0578502145491321E+01    7.8092424365547792E+00    4.7993617056558646E+00
Au    1.3467759647940587E+01    7.7165221128799129E+00    4.8593645592197507E+00
Au    1.6357415049185541E+01    7.7131620686841176E+00    4.8667347247355774E+00
Au    7.2743885628303949E-07    1.0283973998183381E+01    4.8611116448743603E+00
Au    2.9387133727537682E+00    1.0298315808935380E+01    4.8592114578874090E+00
Au    5.8750444691457240E+00    1.0366304934006017E+01    4.8547395253647769E+00
Au    8.9059380100085068E+00    1.0414012593777812E+01    4.9194015241659867E+00
Au    1.1936839762427802E+01    1.0366307795431672E+01    4.8547398805597624E+00
Au    1.4873169369321971E+01    1.0298317880937189E+01    4.8592130770997981E+00
Au    1.4728157167683857E+00    1.2848715898405310E+01    4.8627848791150656E+00
Au    4.4212522383478552E+00    1.2873152824855850E+01    4.8668473659189218E+00
Au    7.3995413535662928E+00    1.2901777066646368E+01    4.8561576742980215E+00
Au    1.0412338954663884E+01    1.2901777483664366E+01    4.8561563655226800E+00
Au    1.3390629538692821E+01    1.2873156117001576E+01    4.8668475038851362E+00
Au    1.6339063269371188E+01    1.2848716977583805E+01    4.8627851987868702E+00
Au    7.4209782140125684E+00    5.9761374869722736E+00    6.9399259851643365E+00
Au    1.0390868164249639E+01    5.9761712028519893E+00    6.9399475978170662E+00
Au    8.9059473690477002E+00    8.5295244118663405E+00    6.9502819269077643E+00
Au    8.9058389361434713E+00    6.7719369467421604E+00    9.1067774801536885E+00
Au    8.9047324608273914E+00    6.5520093819599454E+00    1.1711725696330799E+01
Au    8.9082728931891939E+00    8.2094573957634562E+00    1.3742694144534028E+01
Au    8.9039015145084761E+00    7.2004784878531547E+00    1.6146368111439209E+01
Au    8.9077780673101721E+00    5.7603994687819959E+00    1.8332431435858819E+01
Au    8.9051348267681814E+00    7.2181432959660050E+00    2.0489752215053919E+01
Au    8.9059028917885072E+00    6.9013972956469125E+00    2.3086127707727595E+01
Au    8.9059427455600453E+00    5.1671221296250209E+00    2.5278058798892651E+01
Au    7.4328915131218505E+00    7.7154885311058798E+00    2.5275675774437389E+01
Au    1.0378988820864505E+01    7.7154776098599740E+00    2.5275683610468601E+01
Au   -5.5379975109723117E-07    1.7048534559662725E+00    2.7410467354758662E+01
Au    2.9453492096115084E+00    1.7058183303211847E+00    2.7405357017467786E+01
Au    5.8957761814796763E+00    1.6699550017911677E+00    2.7412506952046908E+01
Au    8.9059377832647773E+00    1.6661889180361937E+00    2.7396608176267865E+01
Au    1.1916101721010779E+01    1.6699530158056903E+00    2.7412506536636322E+01
Au    1.4866531939611832E+01    1.7058138056894618E+00    2.7405357738552777E+01
Au    1.4693243761215973E+00    4.2760456924041215E+00    2.7411214568071795E+01
Au    4.4037865562746186E+00    4.2595213801429228E+00    2.7417145900035475E+01
Au    7.3577484145761396E+00    4.1759897347229806E+00    2.7377177033943845E+01
Au    1.0454127944844014E+01    4.1759915817998401E+00    2.7377170577321575E+01
Au    1.3408095086266394E+01    4.2595145765983018E+00    2.7417141517093672E+01
Au    1.6342556067229751E+01    4.2760451427592630E+00    2.7411219128258026E+01
Au    1.3718891621273080E-06    6.8601353185303040E+00    2.7409730263907889E+01
Au    2.9121288853075162E+00    6.8546017689430343E+00    2.7409292258535512E+01
Au    5.8147116920407305E+00    6.8695507364737933E+00    2.7380579444511760E+01
Au    8.9059359524125910E+00    6.8682513064092561E+00    2.7588351640410504E+01
Au    1.1997169409169835E+01    6.8695405735210748E+00    2.7380583558423979E+01
Au    1.4899751673877024E+01    6.8546017828759425E+00    2.7409293106551697E+01
Au    1.4662384666685642E+00    9.4395174217067783E+00    2.7403509773790731E+01
Au    4.3982882925840201E+00    9.4622020610207791E+00    2.7387800388168351E+01
Au    7.3460124365536954E+00    9.5457522099620036E+00    2.7377896241187244E+01
Au    1.0465859538559865E+01    9.5457632655911144E+00    2.7377900353123369E+01
Au    1.3413585462501034E+01    9.4622010909570893E+00    2.7387804874365610E+01
Au    1.6345639234523443E+01    9.4395192178544285E+00    2.7403512736423330E+01
Au   -7.9127505513560136E-08    1.2004915176153185E+01    2.7404681074665827E+01
Au    2.9460773605831165E+00    1.2014770599388696E+01    2.7404881424119228E+01
Au    5.9002600257893105E+00    1.2057477447564770E+01    2.7411741499972916E+01
Au    8.9059353752675481E+00    1.2051002037447283E+01    2.7421271699587447E+01
Au    1.1911618148912099E+01    1.2057478780915339E+01    2.7411740770984334E+01
Au    1.4865800849962108E+01    1.2014770775916825E+01    2.7404881346360366E+01
Au    1.4735418171900834E+00    1.4566783027532834E+01    2.7406757344731719E+01
Au    4.4252059491818638E+00    1.4576011077756650E+01    2.7410579825479331E+01
Au    7.4113744848179666E+00    1.4573773156543576E+01    2.7416089527039574E+01
Au    1.0400502706549398E+01    1.4573772391058327E+01    2.7416091515254983E+01
Au    1.3386672715182295E+01    1.4576010003978451E+01    2.7410580450595031E+01
Au    1.6338335904823023E+01    1.4566783833900997E+01    2.7406754885220558E+01
Au   -5.8413183300230288E-07    2.0270338278158538E-03    2.9859883935964394E+01
Au    2.9636695952932568E+00    5.5397351750453711E-03    2.9861243904313966E+01
Au    5.9355222575223685E+00   -5.6496498825708728E-03    2.9866440027013311E+01
Au    8.9059392914204967E+00    4.7827961584540500E-03    2.9858469441005955E+01
Au    1.1876355656161342E+01   -5.6503443285932983E-03    2.9866441035555233E+01
Au    1.4848208625110656E+01    5.5380486693811628E-03    2.9861245129375867E+01
Au    1.4848556507277313E+00    2.5762077279370952E+00    2.9859634636377745E+01
Au    4.4515805244324209E+00    2.5697098362196877E+00    2.9862453380140582E+01
Au    7.4153438159779501E+00    2.5714705123347246E+00    2.9851088425840267E+01
Au    1.0396535024015364E+01    2.5714711641738965E+00    2.9851084137509741E+01
Au    1.3360297558295878E+01    2.5697086161632199E+00    2.9862452860480381E+01
Au    1.6327022949850395E+01    2.5762060112435523E+00    2.9859636402599104E+01
Au    9.0712801509599599E-07    5.1485045189670497E+00    2.9859356802925038E+01
Au    2.9682466273475319E+00    5.1460723999293574E+00    2.9862145817191109E+01
Au    5.9415405839396058E+00    5.1475867265136399E+00    2.9817122371018648E+01
Au    8.9059396121588925E+00    5.1248688285293005E+00    2.9858164755664411E+01
Au    1.1870337384399965E+01    5.1475826561462990E+00    2.9817120509697133E+01
Au    1.4843630742004638E+01    5.1460723094152341E+00    2.9862146082982523E+01
Au    1.4820014237994177E+00    7.7210623062550638E+00    2.9861646859481130E+01
Au    4.4478124619327053E+00    7.7120499870898982E+00    2.9851869780922865E+01
Au    7.4040350888655659E+00    7.7241037732216489E+00    2.9861885984161859E+01
Au    1.0407844367413196E+01    7.7241035837702867E+00    2.9861885238403321E+01
Au    1.3364065117938786E+01    7.7120497037441744E+00    2.9851867701443489E+01
Au    1.6329877679065721E+01    7.7210612096552893E+00    2.9861646928900072E+01
Au    5.1425097519391467E-07    1.0289474759277613E+01    2.9859098632714741E+01
Au    2.9733036945183788E+00    1.0283421091998559E+01    2.9854556998631647E+01
Au    5.9345097968618958E+00    1.0291698962005867E+01    2.9852132347362375E+01
Au    8.9059357653107156E+00    1.0274568788526354E+01    2.9817928897330422E+01
Au    1.1877367954477556E+01    1.0291698356456369E+01    2.9852132271336099E+01
Au    1.4838575988897203E+01    1.0283422298544112E+01    2.9854558884141465E+01
Au    1.4819363349495387E+00    1.2855630624501579E+01    2.9861195822612238E+01
Au    4.4429872136912651E+00    1.2858712347189980E+01    2.9864197550935494E+01
Au    7.4191609502565283E+00    1.2851831913215941E+01    2.9863499106851108E+01
Au    1.0392716196261205E+01    1.2851830503355828E+01    2.9863498922690685E+01
Au    1.3368890460371219E+01    1.2858712086585379E+01    2.9864198228507036E+01
Au    1.6329942153004254E+01    1.2855630170314180E+01    2.9861195915427839E+01
     &END COORD
     &KIND Au
       BASIS_SET TZVP-MOLOPT-SR-GTH-q11
       ELEMENT Au
       POTENTIAL GTH-PBE-q11
       &POTENTIAL
1 0 10
0.5900000000000000E+00 1  0.1051717881000000E+02
3
0.5438473300000000E+00 2  0.5786811030000000E+01 -0.2250679660000000E+01
0.2905614950000000E+01
0.6091729800000000E+00 2  0.4284048730000000E+01 -0.4071285200000000E+01
0.4817209620000000E+01
0.4373092200000000E+00 2 -0.7403281240000000E+01  0.3010193070000000E+01
-0.3413238110000000E+01
       &END POTENTIAL
     &END KIND
     &TOPOLOGY
       COORD_FILE_NAME junction_65.xyz
       COORD_FILE_FORMAT  XYZ
       NUMBER_OF_ATOMS  193
       MULTIPLE_UNIT_CELL  1 1 1
     &END TOPOLOGY
   &END SUBSYS
   &PRINT
     &TOTAL_NUMBERS  ON
     &END TOTAL_NUMBERS
   &END PRINT
 &END FORCE_EVAL
