 # Version information for this restart file 
 # current date 2022-05-03 22:16:17.291
 # current working dir /rds/general/user/jj1921/home/junction/ortho/cell_65
 # Program compiled at                              Thu 12 Jul 13:52:12 BST 2018
 # Program compiled on                                      build-2.hpc.ic.ac.uk
 # Program compiled for                                       Linux-x86-64-intel
 # Source code revision number                                         svn:18464
 &GLOBAL
   PRINT_LEVEL  MEDIUM
   PROJECT_NAME Au_junction
   RUN_TYPE  CELL_OPT
 &END GLOBAL
 &MOTION
   &CELL_OPT
     OPTIMIZER  BFGS
     STEP_START_VAL  120
     TYPE  DIRECT_CELL_OPT
     KEEP_ANGLES  T
     KEEP_SYMMETRY  T
     CONSTRAINT  XY
   &END CELL_OPT
   &CONSTRAINT
     &FIXED_ATOMS
       COMPONENTS_TO_FIX  XYZ
       LIST  1..36
     &END FIXED_ATOMS
   &END CONSTRAINT
   &PRINT
     &TRAJECTORY  SILENT
       &EACH
         CELL_OPT  1
       &END EACH
     &END TRAJECTORY
   &END PRINT
 &END MOTION
 &FORCE_EVAL
   METHOD  QS
   STRESS_TENSOR  ANALYTICAL
   &DFT
     BASIS_SET_FILE_NAME /rds/general/user/jj1921/home/BASIS_COM_MOLOPT_GTH
     POTENTIAL_FILE_NAME /rds/general/user/jj1921/home/GTH_POTENTIALS
     &SCF
       MAX_SCF  500
       EPS_SCF     9.9999999999999995E-08
       CHOLESKY  INVERSE
       SCF_GUESS  ATOMIC
       ADDED_MOS  20
       &DIAGONALIZATION  T
         ALGORITHM  STANDARD
       &END DIAGONALIZATION
       &SMEAR  T
         METHOD  FERMI_DIRAC
         ELECTRONIC_TEMPERATURE     3.0000000000000000E+02
       &END SMEAR
       &MIXING  T
         METHOD  BROYDEN_MIXING
         ALPHA     4.0000000000000002E-01
         BETA     5.0000000000000000E-01
         NBUFFER  8
       &END MIXING
     &END SCF
     &QS
       EPS_DEFAULT     1.0000000000000000E-14
       METHOD  GPW
     &END QS
     &MGRID
       NGRIDS  4
       CUTOFF     5.0000000000000000E+02
       REL_CUTOFF     4.0000000000000000E+01
     &END MGRID
     &XC
       DENSITY_CUTOFF     1.0000000000000000E-10
       GRADIENT_CUTOFF     1.0000000000000000E-10
       TAU_CUTOFF     1.0000000000000000E-10
       &XC_FUNCTIONAL  NO_SHORTCUT
         &PBE  T
         &END PBE
       &END XC_FUNCTIONAL
     &END XC
     &KPOINTS
       SCHEME MONKHORST-PACK 4 4 1
       FULL_GRID  T
     &END KPOINTS
   &END DFT
   &SUBSYS
     &CELL
       A     1.7811878396732904E+01    0.0000000000000000E+00    0.0000000000000000E+00
       B     0.0000000000000000E+00    1.5425539180689926E+01    0.0000000000000000E+00
       C     0.0000000000000000E+00    0.0000000000000000E+00    3.2679798479209232E+01
       PERIODIC  XYZ
       MULTIPLE_UNIT_CELL  1 1 1
       SYMMETRY  ORTHORHOMBIC
     &END CELL
     &COORD
Au    1.4843231999999993E+00    8.5697439999999980E-01    0.0000000000000000E+00
Au    4.4529695999999976E+00    8.5697439999999980E-01    0.0000000000000000E+00
Au    7.4216159999999967E+00    8.5697439999999980E-01    0.0000000000000000E+00
Au    1.0390262399999997E+01    8.5697439999999980E-01    0.0000000000000000E+00
Au    1.3358908799999995E+01    8.5697439999999980E-01    0.0000000000000000E+00
Au    1.6327555199999992E+01    8.5697439999999980E-01    0.0000000000000000E+00
Au    0.0000000000000000E+00    3.4278975999999992E+00    0.0000000000000000E+00
Au    2.9686463999999986E+00    3.4278975999999992E+00    0.0000000000000000E+00
Au    5.9372927999999972E+00    3.4278975999999992E+00    0.0000000000000000E+00
Au    8.9059391999999953E+00    3.4278975999999992E+00    0.0000000000000000E+00
Au    1.1874585599999994E+01    3.4278975999999992E+00    0.0000000000000000E+00
Au    1.4843231999999993E+01    3.4278975999999992E+00    0.0000000000000000E+00
Au    1.4843231999999993E+00    5.9988207899999981E+00    0.0000000000000000E+00
Au    4.4529695999999976E+00    5.9988207899999981E+00    0.0000000000000000E+00
Au    7.4216159999999967E+00    5.9988207899999981E+00    0.0000000000000000E+00
Au    1.0390262399999997E+01    5.9988207899999981E+00    0.0000000000000000E+00
Au    1.3358908799999995E+01    5.9988207899999981E+00    0.0000000000000000E+00
Au    1.6327555199999992E+01    5.9988207899999981E+00    0.0000000000000000E+00
Au    0.0000000000000000E+00    8.5697439899999992E+00    0.0000000000000000E+00
Au    2.9686463999999986E+00    8.5697439899999992E+00    0.0000000000000000E+00
Au    5.9372927999999972E+00    8.5697439899999992E+00    0.0000000000000000E+00
Au    8.9059391999999953E+00    8.5697439899999992E+00    0.0000000000000000E+00
Au    1.1874585599999994E+01    8.5697439899999992E+00    0.0000000000000000E+00
Au    1.4843231999999993E+01    8.5697439899999992E+00    0.0000000000000000E+00
Au    1.4843231999999993E+00    1.1140667189999997E+01    0.0000000000000000E+00
Au    4.4529695999999976E+00    1.1140667189999997E+01    0.0000000000000000E+00
Au    7.4216159999999967E+00    1.1140667189999997E+01    0.0000000000000000E+00
Au    1.0390262399999997E+01    1.1140667189999997E+01    0.0000000000000000E+00
Au    1.3358908799999995E+01    1.1140667189999997E+01    0.0000000000000000E+00
Au    1.6327555199999992E+01    1.1140667189999997E+01    0.0000000000000000E+00
Au    0.0000000000000000E+00    1.3711590380000002E+01    0.0000000000000000E+00
Au    2.9686463999999986E+00    1.3711590380000002E+01    0.0000000000000000E+00
Au    5.9372927999999972E+00    1.3711590380000002E+01    0.0000000000000000E+00
Au    8.9059391999999953E+00    1.3711590380000002E+01    0.0000000000000000E+00
Au    1.1874585599999994E+01    1.3711590380000002E+01    0.0000000000000000E+00
Au    1.4843231999999993E+01    1.3711590380000002E+01    0.0000000000000000E+00
Au    1.8295889690635333E-08    1.6971231042149295E+00    2.4090896167608156E+00
Au    2.9539327122375165E+00    1.7020173632760642E+00    2.4078465067282599E+00
Au    5.9210117569544751E+00    1.7107253822340676E+00    2.4066742787029223E+00
Au    8.9059391933489156E+00    1.7372679310061689E+00    2.4190610894760201E+00
Au    1.1890866652134385E+01    1.7107253599943719E+00    2.4066742618019163E+00
Au    1.4857945719720268E+01    1.7020173337594824E+00    2.4078465173600101E+00
Au    1.4787150816448154E+00    4.2664466374097270E+00    2.4074701769812248E+00
Au    4.4477582274840364E+00    4.2778244133010075E+00    2.4267391460918724E+00
Au    7.4084452983093918E+00    4.2898798781993790E+00    2.4215960934918948E+00
Au    1.0403433069576309E+01    4.2898798847598281E+00    2.4215961392412644E+00
Au    1.3364120285414421E+01    4.2778243517468217E+00    2.4267389452368375E+00
Au    1.6333163385351838E+01    4.2664466401392342E+00    2.4074701825984128E+00
Au    1.5643620205806115E-08    6.8406168671451182E+00    2.4069754797230116E+00
Au    2.9581206752998535E+00    6.8367038495715731E+00    2.4047835910462587E+00
Au    5.9294768988999706E+00    6.8404388516337074E+00    2.4175706735908919E+00
Au    8.9059391972540123E+00    6.8577602792084402E+00    2.4812862461756580E+00
Au    1.1882401485881678E+01    6.8404388879499107E+00    2.4175707162290707E+00
Au    1.4853757747931230E+01    6.8367038479158211E+00    2.4047835820014982E+00
Au    1.4897613984509808E+00    9.4108982676556554E+00    2.4084458282981069E+00
Au    4.4631950645141361E+00    9.4117987709166382E+00    2.4155136149242229E+00
Au    7.4277130016828457E+00    9.4424499097120957E+00    2.4131945221862745E+00
Au    1.0384165415482240E+01    9.4424499124716057E+00    2.4131944999348280E+00
Au    1.3348683344826689E+01    9.4117987929393223E+00    2.4155136423304446E+00
Au    1.6322117001631906E+01    9.4108982707859479E+00    2.4084458176798931E+00
Au   -7.0065736358466459E-10    1.1976013744187139E+01    2.4089316291077494E+00
Au    2.9749279185484419E+00    1.1983800697323444E+01    2.4070296394663080E+00
Au    5.9366938003699978E+00    1.2012990359528027E+01    2.4030230724189474E+00
Au    8.9059392026183026E+00    1.2011828134865629E+01    2.4203193515404813E+00
Au    1.1875184605600616E+01    1.2012990363623301E+01    2.4030230839479985E+00
Au    1.4836950484424989E+01    1.1983800710336780E+01    2.4070296256828665E+00
Au    1.4827190427008445E+00    1.4551557199986249E+01    2.4096762553600315E+00
Au    4.4439751492874731E+00    1.4566973143522761E+01    2.4068838762166131E+00
Au    7.4226421219820766E+00    1.4591146157124840E+01    2.4040472159321431E+00
Au    1.0389236267619983E+01    1.4591146159092837E+01    2.4040472182945232E+00
Au    1.3367903257604727E+01    1.4566973141993458E+01    2.4068838667898791E+00
Au    1.6329159371085922E+01    1.4551557184574934E+01    2.4096762438970254E+00
Au    1.4905946812953623E-08   -3.0246518301690548E-02    4.8645462191357485E+00
Au    2.9338442515104135E+00   -2.4562249397788324E-02    4.8703672249845775E+00
Au    5.8942436998622050E+00   -2.1560911315102686E-02    4.8693562774370500E+00
Au    8.9059392026691242E+00    2.3355863056185103E-03    4.8552985123823591E+00
Au    1.1917634697170866E+01   -2.1560910107289478E-02    4.8693562664306063E+00
Au    1.4878034173076358E+01   -2.4562278755654914E-02    4.8703672354416350E+00
Au    1.4565232010994618E+00    2.5363738506354192E+00    4.8721939720398169E+00
Au    4.3858035831694542E+00    2.5127494282720315E+00    4.8671564959971914E+00
Au    7.3505356201649690E+00    2.4748942402421092E+00    4.8574322330261435E+00
Au    1.0461342783221506E+01    2.4748942591911907E+00    4.8574322271325494E+00
Au    1.3426074875459602E+01    2.5127493522201907E+00    4.8671564938619625E+00
Au    1.6355355241469589E+01    2.5363738370156659E+00    4.8721939461650923E+00
Au    5.0769714187905814E-08    5.1154861572027333E+00    4.8666491550633628E+00
Au    2.8994502538563092E+00    5.1083324743183480E+00    4.8660685472112766E+00
Au    5.8014986389879679E+00    5.0566872051264529E+00    4.9021592005066461E+00
Au    8.9059391698705745E+00    4.9027014378521319E+00    4.8002844837132530E+00
Au    1.2010380031143391E+01    5.0566870020559627E+00    4.9021586885507507E+00
Au    1.4912428255978124E+01    5.1083324741826592E+00    4.8660685261845362E+00
Au    1.4519159140131284E+00    7.6991924554673634E+00    4.8663408788969562E+00
Au    4.3389694301326740E+00    7.7014684708513377E+00    4.8558220096605442E+00
Au    7.2190896494070067E+00    7.8357518452335100E+00    4.7841138713844238E+00
Au    1.0592788732871787E+01    7.8357519449442243E+00    4.7841138463115991E+00
Au    1.3472909010216210E+01    7.7014684880395032E+00    4.8558220106091108E+00
Au    1.6359962527986422E+01    7.6991924563707821E+00    4.8663408355976863E+00
Au    7.8870092955548334E-09    1.0267666132283850E+01    4.8565209193215608E+00
Au    2.9404123518217977E+00    1.0287081884885374E+01    4.8548457879027644E+00
Au    5.8715292019412075E+00    1.0382189207784920E+01    4.8479603173062236E+00
Au    8.9059391650053659E+00    1.0441245982816005E+01    4.8870566002616336E+00
Au    1.1940349264743316E+01    1.0382189269585702E+01    4.8479603443771406E+00
Au    1.4871466087608804E+01    1.0287081905562550E+01    4.8548458099938925E+00
Au    1.4716754032720907E+00    1.2835098068877588E+01    4.8592094787045230E+00
Au    4.4146817232158009E+00    1.2876184327958834E+01    4.8665068556083808E+00
Au    7.3972587997138168E+00    1.2916975303972249E+01    4.8520232946273643E+00
Au    1.0414619605231842E+01    1.2916975303378081E+01    4.8520232877694989E+00
Au    1.3397196707700417E+01    1.2876184368362251E+01    4.8665068651764463E+00
Au    1.6340202999235505E+01    1.2835098073890903E+01    4.8592094827753831E+00
Au    7.4143714497303108E+00    6.0216882007940464E+00    6.9167473707928178E+00
Au    1.0397507601885778E+01    6.0216883110718742E+00    6.9167470115267120E+00
Au    8.9059394802298648E+00    8.5678543911822107E+00    6.9200185041354869E+00
Au    8.9059400081056594E+00    6.8277237888933824E+00    9.0816352278344734E+00
Au    8.9059137977249101E+00    6.2402585025390271E+00    1.1627754496280618E+01
Au    8.9059954817748821E+00    7.7170856607787801E+00    1.3800570648652611E+01
Au    8.9058771437761735E+00    7.2676297347476684E+00    1.6390358073026761E+01
Au    8.9059782514669017E+00    5.9392878351884288E+00    1.8661330563244228E+01
Au    8.9059281005910034E+00    7.2677126889957675E+00    2.0898480227996192E+01
Au    8.9059392621300386E+00    6.8613605257506647E+00    2.3500008798045020E+01
Au    8.9059392000849442E+00    5.1492597071138047E+00    2.5693747090434641E+01
Au    7.4369292153586173E+00    7.6944501666239811E+00    2.5679573846112369E+01
Au    1.0374949388761301E+01    7.6944502149088372E+00    2.5679574166748342E+01
Au   -9.9644941298880814E-09    1.7110688552395390E+00    2.7830092147893666E+01
Au    2.9446446618358753E+00    1.7097785744140424E+00    2.7822777143481385E+01
Au    5.8940022683214774E+00    1.6711807630120870E+00    2.7826427146445312E+01
Au    8.9059391926813412E+00    1.6665043927222050E+00    2.7809104035696343E+01
Au    1.1917876121750439E+01    1.6711807592448771E+00    2.7826427158444400E+01
Au    1.4867233763238159E+01    1.7097785299258625E+00    2.7822777148231189E+01
Au    1.4676334037566101E+00    4.2825558705239919E+00    2.7825598722879153E+01
Au    4.4019863249231497E+00    4.2632629676963303E+00    2.7832390493584310E+01
Au    7.3532311057019113E+00    4.1771788596705903E+00    2.7794892344296009E+01
Au    1.0458647222328343E+01    4.1771789073951808E+00    2.7794892216246478E+01
Au    1.3409892105444348E+01    4.2632628931246845E+00    2.7832390461619585E+01
Au    1.6344245007420749E+01    4.2825558622041644E+00    2.7825598775093646E+01
Au    1.1659040876832744E-08    6.8641278743839358E+00    2.7820706083740763E+01
Au    2.9105027574484450E+00    6.8598262420772746E+00    2.7820919594930579E+01
Au    5.8110682143985004E+00    6.8709283480174728E+00    2.7789898857172286E+01
Au    8.9059391585186276E+00    6.8713777408256380E+00    2.7989334234680722E+01
Au    1.2000810271558413E+01    6.8709281990948119E+00    2.7789898951199394E+01
Au    1.4901375682428817E+01    6.8598262473715650E+00    2.7820919605980833E+01
Au    1.4657265703781648E+00    9.4432179075572851E+00    2.7816521591430810E+01
Au    4.3945972054438522E+00    9.4644102929575844E+00    2.7795480990680279E+01
Au    7.3424869416011491E+00    9.5395931447152531E+00    2.7778285274585272E+01
Au    1.0469391408415429E+01    9.5395933549606617E+00    2.7778285453863884E+01
Au    1.3417281158593473E+01    9.4644102820348497E+00    2.7795481034634385E+01
Au    1.6346151832095511E+01    9.4432179221885590E+00    2.7816521620463952E+01
Au    2.7522938486777648E-09    1.2008324477887726E+01    2.7820565408812442E+01
Au    2.9479152516067546E+00    1.2017323184849499E+01    2.7819701664898680E+01
Au    5.9050347185058900E+00    1.2055300506175978E+01    2.7819287148717276E+01
Au    8.9059391507548611E+00    1.2046086993457156E+01    2.7828484091138805E+01
Au    1.1906843704393953E+01    1.2055300549589159E+01    2.7819287147138464E+01
Au    1.4863963154904180E+01    1.2017323178157236E+01    2.7819701675923675E+01
Au    1.4742566806051671E+00    1.4570077905371067E+01    2.7827754805620280E+01
Au    4.4271372899739729E+00    1.4575895004371491E+01    2.7823409964514173E+01
Au    7.4114539306380847E+00    1.4573330458370618E+01    2.7825454682928616E+01
Au    1.0400424466063281E+01    1.4573330449433170E+01    2.7825454699631631E+01
Au    1.3384741119260161E+01    1.4575895010167535E+01    2.7823409968372143E+01
Au    1.6337621711549641E+01    1.4570077920751032E+01    2.7827754783516976E+01
Au   -2.3212686988177279E-09    5.5162885058062444E-03    3.0274230031126230E+01
Au    2.9689924128556782E+00    7.6127125562909679E-03    3.0273864772898090E+01
Au    5.9382037943870865E+00   -7.7534189666472611E-03    3.0276040933934389E+01
Au    8.9059392060133469E+00    4.7795381692253064E-03    3.0266762518870014E+01
Au    1.1873674602235255E+01   -7.7534270871737936E-03    3.0276040947688042E+01
Au    1.4842885979226120E+01    7.6127103428120027E-03    3.0273864783856261E+01
Au    1.4841398430398522E+00    2.5826156753881713E+00    3.0272934177917115E+01
Au    4.4550313415109857E+00    2.5729000758616092E+00    3.0274908009239489E+01
Au    7.4150573447437029E+00    2.5724646950576644E+00    3.0262955401473622E+01
Au    1.0396821057835831E+01    2.5724647267422656E+00    3.0262955340863353E+01
Au    1.3356847049671517E+01    2.5729000648966549E+00    3.0274908018055402E+01
Au    1.6327738563137714E+01    2.5826156587242308E+00    3.0272934189239500E+01
Au    4.7180513737504931E-09    5.1528742319734331E+00    3.0271610679370095E+01
Au    2.9689109620985086E+00    5.1516328839107048E+00    3.0274546806674884E+01
Au    5.9428327726829551E+00    5.1512324686556417E+00    3.0228322559972199E+01
Au    8.9059391950855993E+00    5.1235178496344167E+00    3.0267777162089811E+01
Au    1.1869045609376249E+01    5.1512324209849130E+00    3.0228322525611969E+01
Au    1.4842967423348121E+01    5.1516328927241783E+00    3.0274546830263990E+01
Au    1.4829272598722016E+00    7.7239346008592422E+00    3.0272701558264981E+01
Au    4.4509160203250433E+00    7.7133475358934396E+00    3.0262832782384201E+01
Au    7.4027374160363202E+00    7.7240350164451907E+00    3.0273204434155744E+01
Au    1.0409140988266893E+01    7.7240350162812215E+00    3.0273204432674063E+01
Au    1.3360962361878606E+01    7.7133475289034985E+00    3.0262832762833440E+01
Au    1.6328951152176575E+01    7.7239345959084487E+00    3.0272701563312051E+01
Au    8.6197741648649025E-09    1.0290133497656706E+01    3.0271660052729430E+01
Au    2.9764766024658131E+00    1.0281834145615194E+01    3.0265797441878082E+01
Au    5.9383693504684825E+00    1.0288304585697659E+01    3.0260460945519558E+01
Au    8.9059391526940264E+00    1.0267114865748445E+01    3.0217921250903000E+01
Au    1.1873509061761766E+01    1.0288304586744324E+01    3.0260460966874575E+01
Au    1.4835401812383511E+01    1.0281834153042162E+01    3.0265797469794158E+01
Au    1.4860200301731659E+00    1.2855901066552541E+01    3.0274245804356365E+01
Au    4.4458706368335363E+00    1.2857189457141542E+01    3.0273241962781665E+01
Au    7.4220197919403272E+00    1.2847999820554973E+01    3.0273348843833645E+01
Au    1.0389858593538538E+01    1.2847999809269442E+01    3.0273348838987722E+01
Au    1.3366007762508257E+01    1.2857189458104594E+01    3.0273241976312164E+01
Au    1.6325858374018477E+01    1.2855901061620694E+01    3.0274245798934825E+01
     &END COORD
     &KIND Au
       BASIS_SET TZVP-MOLOPT-SR-GTH-q11
       ELEMENT Au
       POTENTIAL GTH-PBE-q11
       &POTENTIAL
1 0 10
0.5900000000000000E+00 1  0.1051717881000000E+02
3
0.5438473300000000E+00 2  0.5786811030000000E+01 -0.2250679660000000E+01
0.2905614950000000E+01
0.6091729800000000E+00 2  0.4284048730000000E+01 -0.4071285200000000E+01
0.4817209620000000E+01
0.4373092200000000E+00 2 -0.7403281240000000E+01  0.3010193070000000E+01
-0.3413238110000000E+01
       &END POTENTIAL
     &END KIND
     &TOPOLOGY
       COORD_FILE_NAME junction_65.xyz
       COORD_FILE_FORMAT  XYZ
       NUMBER_OF_ATOMS  193
       MULTIPLE_UNIT_CELL  1 1 1
     &END TOPOLOGY
   &END SUBSYS
   &PRINT
     &TOTAL_NUMBERS  ON
     &END TOTAL_NUMBERS
   &END PRINT
 &END FORCE_EVAL
