 # Version information for this restart file 
 # current date 2022-05-05 21:44:03.816
 # current working dir /rds/general/user/jj1921/home/junction/ortho/cell_65
 # Program compiled at                              Thu 12 Jul 13:52:12 BST 2018
 # Program compiled on                                      build-2.hpc.ic.ac.uk
 # Program compiled for                                       Linux-x86-64-intel
 # Source code revision number                                         svn:18464
 &GLOBAL
   PRINT_LEVEL  MEDIUM
   PROJECT_NAME Au_junction
   RUN_TYPE  CELL_OPT
 &END GLOBAL
 &MOTION
   &CELL_OPT
     OPTIMIZER  BFGS
     STEP_START_VAL  150
     TYPE  DIRECT_CELL_OPT
     KEEP_ANGLES  T
     KEEP_SYMMETRY  T
     CONSTRAINT  XY
   &END CELL_OPT
   &CONSTRAINT
     &FIXED_ATOMS
       COMPONENTS_TO_FIX  XYZ
       LIST  1..36
     &END FIXED_ATOMS
   &END CONSTRAINT
   &PRINT
     &TRAJECTORY  SILENT
       &EACH
         CELL_OPT  1
       &END EACH
     &END TRAJECTORY
   &END PRINT
 &END MOTION
 &FORCE_EVAL
   METHOD  QS
   STRESS_TENSOR  ANALYTICAL
   &DFT
     BASIS_SET_FILE_NAME /rds/general/user/jj1921/home/BASIS_COM_MOLOPT_GTH
     POTENTIAL_FILE_NAME /rds/general/user/jj1921/home/GTH_POTENTIALS
     &SCF
       MAX_SCF  500
       EPS_SCF     9.9999999999999995E-08
       CHOLESKY  INVERSE
       SCF_GUESS  ATOMIC
       ADDED_MOS  20
       &DIAGONALIZATION  T
         ALGORITHM  STANDARD
       &END DIAGONALIZATION
       &SMEAR  T
         METHOD  FERMI_DIRAC
         ELECTRONIC_TEMPERATURE     3.0000000000000000E+02
       &END SMEAR
       &MIXING  T
         METHOD  BROYDEN_MIXING
         ALPHA     4.0000000000000002E-01
         BETA     5.0000000000000000E-01
         NBUFFER  8
       &END MIXING
     &END SCF
     &QS
       EPS_DEFAULT     1.0000000000000000E-14
       METHOD  GPW
     &END QS
     &MGRID
       NGRIDS  4
       CUTOFF     5.0000000000000000E+02
       REL_CUTOFF     4.0000000000000000E+01
     &END MGRID
     &XC
       DENSITY_CUTOFF     1.0000000000000000E-10
       GRADIENT_CUTOFF     1.0000000000000000E-10
       TAU_CUTOFF     1.0000000000000000E-10
       &XC_FUNCTIONAL  NO_SHORTCUT
         &PBE  T
         &END PBE
       &END XC_FUNCTIONAL
     &END XC
     &KPOINTS
       SCHEME MONKHORST-PACK 4 4 1
       FULL_GRID  T
     &END KPOINTS
   &END DFT
   &SUBSYS
     &CELL
       A     1.7811878396732908E+01    0.0000000000000000E+00    0.0000000000000000E+00
       B     0.0000000000000000E+00    1.5425539180689926E+01    0.0000000000000000E+00
       C     0.0000000000000000E+00    0.0000000000000000E+00    3.2341450909162539E+01
       PERIODIC  XYZ
       MULTIPLE_UNIT_CELL  1 1 1
       SYMMETRY  ORTHORHOMBIC
     &END CELL
     &COORD
Au    1.4843231999999993E+00    8.5697439999999980E-01    0.0000000000000000E+00
Au    4.4529695999999976E+00    8.5697439999999980E-01    0.0000000000000000E+00
Au    7.4216159999999967E+00    8.5697439999999980E-01    0.0000000000000000E+00
Au    1.0390262399999999E+01    8.5697439999999980E-01    0.0000000000000000E+00
Au    1.3358908799999995E+01    8.5697439999999980E-01    0.0000000000000000E+00
Au    1.6327555199999992E+01    8.5697439999999980E-01    0.0000000000000000E+00
Au    0.0000000000000000E+00    3.4278975999999992E+00    0.0000000000000000E+00
Au    2.9686463999999986E+00    3.4278975999999992E+00    0.0000000000000000E+00
Au    5.9372927999999972E+00    3.4278975999999992E+00    0.0000000000000000E+00
Au    8.9059391999999953E+00    3.4278975999999992E+00    0.0000000000000000E+00
Au    1.1874585599999994E+01    3.4278975999999992E+00    0.0000000000000000E+00
Au    1.4843231999999993E+01    3.4278975999999992E+00    0.0000000000000000E+00
Au    1.4843231999999993E+00    5.9988207899999981E+00    0.0000000000000000E+00
Au    4.4529695999999976E+00    5.9988207899999981E+00    0.0000000000000000E+00
Au    7.4216159999999967E+00    5.9988207899999981E+00    0.0000000000000000E+00
Au    1.0390262399999999E+01    5.9988207899999981E+00    0.0000000000000000E+00
Au    1.3358908799999995E+01    5.9988207899999981E+00    0.0000000000000000E+00
Au    1.6327555199999992E+01    5.9988207899999981E+00    0.0000000000000000E+00
Au    0.0000000000000000E+00    8.5697439900000010E+00    0.0000000000000000E+00
Au    2.9686463999999986E+00    8.5697439900000010E+00    0.0000000000000000E+00
Au    5.9372927999999972E+00    8.5697439900000010E+00    0.0000000000000000E+00
Au    8.9059391999999953E+00    8.5697439900000010E+00    0.0000000000000000E+00
Au    1.1874585599999994E+01    8.5697439900000010E+00    0.0000000000000000E+00
Au    1.4843231999999993E+01    8.5697439900000010E+00    0.0000000000000000E+00
Au    1.4843231999999993E+00    1.1140667189999997E+01    0.0000000000000000E+00
Au    4.4529695999999976E+00    1.1140667189999997E+01    0.0000000000000000E+00
Au    7.4216159999999967E+00    1.1140667189999997E+01    0.0000000000000000E+00
Au    1.0390262399999999E+01    1.1140667189999997E+01    0.0000000000000000E+00
Au    1.3358908799999995E+01    1.1140667189999997E+01    0.0000000000000000E+00
Au    1.6327555199999992E+01    1.1140667189999997E+01    0.0000000000000000E+00
Au    0.0000000000000000E+00    1.3711590380000004E+01    0.0000000000000000E+00
Au    2.9686463999999986E+00    1.3711590380000004E+01    0.0000000000000000E+00
Au    5.9372927999999972E+00    1.3711590380000004E+01    0.0000000000000000E+00
Au    8.9059391999999953E+00    1.3711590380000004E+01    0.0000000000000000E+00
Au    1.1874585599999994E+01    1.3711590380000004E+01    0.0000000000000000E+00
Au    1.4843231999999993E+01    1.3711590380000004E+01    0.0000000000000000E+00
Au    1.8037197859769508E-07    1.6968551669878396E+00    2.4130874945131948E+00
Au    2.9538933849947537E+00    1.7006246288807696E+00    2.4085072768735230E+00
Au    5.9200649693256606E+00    1.7111473511703603E+00    2.4056562235152108E+00
Au    8.9059392051264705E+00    1.7322037423522656E+00    2.4183242694851219E+00
Au    1.1891813590062435E+01    1.7111471457015284E+00    2.4056561006611266E+00
Au    1.4857985340275428E+01    1.7006243994701442E+00    2.4085073593437820E+00
Au    1.4792796264482226E+00    4.2667907272388339E+00    2.4091176884910896E+00
Au    4.4477174246333986E+00    4.2769871188232012E+00    2.4253945443758731E+00
Au    7.4077231452103778E+00    4.2859969745038686E+00    2.4187374545307070E+00
Au    1.0404155290138041E+01    4.2859969845867605E+00    2.4187376689638826E+00
Au    1.3364161778884760E+01    4.2769866486896673E+00    2.4253933885220866E+00
Au    1.6332599361423213E+01    4.2667907117414972E+00    2.4091177209401824E+00
Au    1.8516951017117340E-07    6.8411636230776187E+00    2.4100862341235105E+00
Au    2.9608074253142087E+00    6.8382366190217585E+00    2.4049960577569416E+00
Au    5.9297568617939511E+00    6.8429858790214100E+00    2.4187437999367081E+00
Au    8.9059392295514321E+00    6.8564657754176999E+00    2.4769372397054896E+00
Au    1.1882121701234016E+01    6.8429859781916118E+00    2.4187439756273692E+00
Au    1.4851071316051110E+01    6.8382365129842198E+00    2.4049959801213401E+00
Au    1.4878699663151653E+00    9.4129459298407330E+00    2.4108607253501693E+00
Au    4.4610253807422371E+00    9.4155308310036645E+00    2.4148224901971278E+00
Au    7.4270205192110739E+00    9.4443857563672324E+00    2.4176191942586063E+00
Au    1.0384858091958989E+01    9.4443858623828749E+00    2.4176189631636271E+00
Au    1.3350853149952107E+01    9.4155309590433269E+00    2.4148227694988238E+00
Au    1.6324008441361208E+01    9.4129459264704991E+00    2.4108606349242137E+00
Au   -1.0941113074509448E-08    1.1979016761654176E+01    2.4116837700305211E+00
Au    2.9695287162907751E+00    1.1986097003748968E+01    2.4086978920325781E+00
Au    5.9342295588104914E+00    1.2012305318799996E+01    2.4047143004661091E+00
Au    8.9059392011847844E+00    1.2010720304385881E+01    2.4233188257147646E+00
Au    1.1877648882682186E+01    1.2012305443621406E+01    2.4047143440388088E+00
Au    1.4842349740857797E+01    1.1986097104353417E+01    2.4086977705452441E+00
Au    1.4801279699149499E+00    1.4551894467810314E+01    2.4114969669847075E+00
Au    4.4414567291033604E+00    1.4566485948109795E+01    2.4092134097915592E+00
Au    7.4197763391773552E+00    1.4586264120076471E+01    2.4064186878164513E+00
Au    1.0392101954075500E+01    1.4586264172931525E+01    2.4064187141175646E+00
Au    1.3370421829305611E+01    1.4566485926597634E+01    2.4092133153338038E+00
Au    1.6331750580947364E+01    1.4551894393883074E+01    2.4114968674369757E+00
Au    1.6228369852392245E-07   -2.8552945685897394E-02    4.8712381545429491E+00
Au    2.9352331654503212E+00   -2.3907745755283937E-02    4.8726446980749580E+00
Au    5.8941771688670457E+00   -2.2651983577123124E-02    4.8691305514550303E+00
Au    8.9059391986462977E+00   -4.4163714264063474E-03    4.8560722217584358E+00
Au    1.1917701366061701E+01   -2.2652107343713306E-02    4.8691304045552100E+00
Au    1.4876645527743735E+01   -2.3907904876079595E-02    4.8726448468315642E+00
Au    1.4599506060487093E+00    2.5387817640980739E+00    4.8756650534825949E+00
Au    4.3897965536534871E+00    2.5145169641949496E+00    4.8674843724360199E+00
Au    7.3557682455697364E+00    2.4751598728292605E+00    4.8567625655096958E+00
Au    1.0456110436780188E+01    2.4751597436183626E+00    4.8567625552323310E+00
Au    1.3422082340828290E+01    2.5145164958352786E+00    4.8674843967200756E+00
Au    1.6351928264391663E+01    2.5387816246321155E+00    4.8756648676078989E+00
Au    3.8504172613674672E-07    5.1171267143573811E+00    4.8690065397927142E+00
Au    2.9037431479875044E+00    5.1110148596442793E+00    4.8676971198149594E+00
Au    5.8056775846942124E+00    5.0579984885999085E+00    4.9017142245477618E+00
Au    8.9059397002456233E+00    4.9124336777249891E+00    4.7920997747256999E+00
Au    1.2006202161043321E+01    5.0579972656468222E+00    4.9017121950117284E+00
Au    1.4908135949869308E+01    5.1110147110340511E+00    4.8676969606159082E+00
Au    1.4549068123986635E+00    7.6998092240600959E+00    4.8681412550420058E+00
Au    4.3465611163077913E+00    7.7053049412264825E+00    4.8574323908429866E+00
Au    7.2339314533062948E+00    7.8297158910458906E+00    4.7829804825906361E+00
Au    1.0577947417590513E+01    7.8297163413490019E+00    4.7829797190166135E+00
Au    1.3465318029835794E+01    7.7053049084309624E+00    4.8574324221067506E+00
Au    1.6356972197875422E+01    7.6998091638982382E+00    4.8681409611440198E+00
Au    8.7671523161877389E-08    1.0268130751953604E+01    4.8614949112117554E+00
Au    2.9384115921628404E+00    1.0286060048368004E+01    4.8588825119821317E+00
Au    5.8712533190762439E+00    1.0375731650531216E+01    4.8528099531150080E+00
Au    8.9059387728151034E+00    1.0434826939069913E+01    4.9002848427508612E+00
Au    1.1940625687799157E+01    1.0375732248537831E+01    4.8528100165915120E+00
Au    1.4873467213743238E+01    1.0286060177371764E+01    4.8588826910541192E+00
Au    1.4713739392121690E+00    1.2836896421720361E+01    4.8652370112781114E+00
Au    4.4127018013529540E+00    1.2872810766947804E+01    4.8693868558318183E+00
Au    7.3954452680236260E+00    1.2912305456846736E+01    4.8568721919568860E+00
Au    1.0416433097394279E+01    1.2912305383324894E+01    4.8568720506059506E+00
Au    1.3399176960001965E+01    1.2872811129629355E+01    4.8693869308561917E+00
Au    1.6340504560899763E+01    1.2836896465735647E+01    4.8652370503569644E+00
Au    7.4186338619015544E+00    6.0162312832601090E+00    6.9211565453313506E+00
Au    1.0393247386292810E+01    6.0162347891701389E+00    6.9211563430843022E+00
Au    8.9059423543596825E+00    8.5598367295069355E+00    6.9384191926567018E+00
Au    8.9059375026249690E+00    6.8003926613895249E+00    9.0891829840420097E+00
Au    8.9057598516742260E+00    6.2539950452978408E+00    1.1645877384687017E+01
Au    8.9062899499913364E+00    7.9257298306197717E+00    1.3660316403771354E+01
Au    8.9055849335085959E+00    7.3810988752552991E+00    1.6222009077943000E+01
Au    8.9061871994460979E+00    5.8574266451348649E+00    1.8343680771489158E+01
Au    8.9058559541876221E+00    7.2281775365367951E+00    2.0555107238440282E+01
Au    8.9059389544501073E+00    6.8581088761410047E+00    2.3156866753739148E+01
Au    8.9059393700959006E+00    5.1452919413902487E+00    2.5355028917804439E+01
Au    7.4396951303035772E+00    7.6956540986638649E+00    2.5338876413414511E+01
Au    1.0372185086926011E+01    7.6956543015364298E+00    2.5338878883379074E+01
Au   -1.0114315689116441E-07    1.7122845544460898E+00    2.7481795075340461E+01
Au    2.9443902781312747E+00    1.7105780579907786E+00    2.7477110791635081E+01
Au    5.8928153263012693E+00    1.6711444462661325E+00    2.7484523919748653E+01
Au    8.9059390507183611E+00    1.6663575208289969E+00    2.7468190328551664E+01
Au    1.1919062970563878E+01    1.6711442875356979E+00    2.7484524005229250E+01
Au    1.4867488383416095E+01    1.7105776447873164E+00    2.7477110854934629E+01
Au    1.4698831465412494E+00    4.2825765849999273E+00    2.7481135579794199E+01
Au    4.4033214990819962E+00    4.2644929969361947E+00    2.7491807438546385E+01
Au    7.3537850251830257E+00    4.1747354257115177E+00    2.7458521828613957E+01
Au    1.0458092915861126E+01    4.1747357018980340E+00    2.7458520928811133E+01
Au    1.3408557244026289E+01    4.2644922562926473E+00    2.7491807095253211E+01
Au    1.6341995455934320E+01    4.2825764617317317E+00    2.7481136089238628E+01
Au    1.5198735015190673E-07    6.8642912591182226E+00    2.7478947102057585E+01
Au    2.9130754742493523E+00    6.8599975117588237E+00    2.7480099778798920E+01
Au    5.8125562871177126E+00    6.8724740991021314E+00    2.7449973331568977E+01
Au    8.9059388585703640E+00    6.8633146641224805E+00    2.7659096781232211E+01
Au    1.1999322860199220E+01    6.8724728665589767E+00    2.7449974445223059E+01
Au    1.4898803378363979E+01    6.8599975554891222E+00    2.7480099943080280E+01
Au    1.4657852802797977E+00    9.4428092877793262E+00    2.7474876816059076E+01
Au    4.3962260268853459E+00    9.4643787742176180E+00    2.7457651229085382E+01
Au    7.3446863014911807E+00    9.5359753499456161E+00    2.7443499442552302E+01
Au    1.0467191542347786E+01    9.5359771194382734E+00    2.7443500950929366E+01
Au    1.3415652002053752E+01    9.4643787245157771E+00    2.7457651692138413E+01
Au    1.6346093111520496E+01    9.4428094545513428E+00    2.7474877099706866E+01
Au   -5.0475022569886911E-09    1.2010561643378569E+01    2.7474647223564080E+01
Au    2.9471903040872092E+00    1.2016266181079548E+01    2.7476131573748663E+01
Au    5.9035698180992036E+00    1.2052235040391533E+01    2.7482476850244428E+01
Au    8.9059387290579384E+00    1.2044822239269537E+01    2.7493196975759219E+01
Au    1.1908308711572207E+01    1.2052235440302358E+01    2.7482476852246439E+01
Au    1.4864688124362974E+01    1.2016266191618044E+01    2.7476131607024694E+01
Au    1.4740336866819381E+00    1.4571044923497665E+01    2.7479667268481361E+01
Au    4.4256394795872875E+00    1.4575141288559982E+01    2.7480238899185455E+01
Au    7.4101330711402253E+00    1.4573779603772101E+01    2.7485676448787295E+01
Au    1.0401745203022005E+01    1.4573779555522863E+01    2.7485676643024942E+01
Au    1.3386239000546709E+01    1.4575141319767289E+01    2.7480238919297413E+01
Au    1.6337844646195041E+01    1.4571045021884133E+01    2.7479666994912353E+01
Au   -5.2553181893166500E-08    6.4097884946295956E-03    2.9932700759228972E+01
Au    2.9644382780073668E+00    6.3549918721487689E-03    2.9931511147000634E+01
Au    5.9345282204225382E+00   -6.4553516413742183E-03    2.9935573484105984E+01
Au    8.9059392204351226E+00    4.1331048535291808E-03    2.9927482798052470E+01
Au    1.1877350112905743E+01   -6.4554368584459620E-03    2.9935573613433508E+01
Au    1.4847440073475047E+01    6.3548876428621498E-03    2.9931511252381526E+01
Au    1.4833980891399356E+00    2.5791305035755525E+00    2.9930238647240643E+01
Au    4.4528825566244876E+00    2.5713497776764367E+00    2.9934726683439639E+01
Au    7.4143713920828676E+00    2.5685920334004821E+00    2.9925828118876137E+01
Au    1.0397506996925463E+01    2.5685921796628173E+00    2.9925827605107305E+01
Au    1.3358995776011568E+01    2.5713496446279986E+00    2.9934726713215852E+01
Au    1.6328480336869760E+01    2.5791303432865171E+00    2.9930238828112948E+01
Au    5.6140591835714713E-08    5.1509887391269373E+00    2.9930014195243256E+01
Au    2.9666219265292941E+00    5.1493061538110911E+00    2.9934762194855995E+01
Au    5.9401543972697661E+00    5.1492087819888175E+00    2.9890321419608558E+01
Au    8.9059391987831411E+00    5.1232587921781905E+00    2.9930055851958787E+01
Au    1.1871723918472087E+01    5.1492082906183247E+00    2.9890321207884895E+01
Au    1.4845256346260673E+01    5.1493061871902439E+00    2.9934762317338354E+01
Au    1.4828175371905423E+00    7.7240054093115447E+00    2.9932512322119734E+01
Au    4.4494593191601268E+00    7.7139925337027790E+00    2.9924384579687246E+01
Au    7.4053063930075158E+00    7.7230054666053087E+00    2.9931213736060528E+01
Au    1.0406572043706305E+01    7.7230054468887168E+00    2.9931213750868125E+01
Au    1.3362419063630199E+01    7.7139925387965613E+00    2.9924384520391417E+01
Au    1.6329061015857814E+01    7.7240053418471195E+00    2.9932512379699045E+01
Au    7.6059881698171340E-08    1.0294013361932553E+01    2.9930243808238032E+01
Au    2.9731250973540178E+00    1.0284304546682426E+01    2.9926138069682882E+01
Au    5.9362833872309437E+00    1.0290604391258924E+01    2.9923653370223906E+01
Au    8.9059387520564446E+00    1.0271830699911343E+01    2.9886308981609858E+01
Au    1.1875595091121093E+01    1.0290604456288937E+01    2.9923653586677077E+01
Au    1.4838753466389102E+01    1.0284304665335378E+01    2.9926138284755805E+01
Au    1.4830240079303365E+00    1.2859569222530395E+01    2.9932106279493475E+01
Au    4.4435252362707338E+00    1.2857606297255479E+01    2.9933465550128943E+01
Au    7.4198823356704704E+00    1.2849758350918350E+01    2.9934659559366771E+01
Au    1.0391995899865956E+01    1.2849758185594309E+01    2.9934659525085770E+01
Au    1.3368353141459323E+01    1.2857606337143348E+01    2.9933465654456832E+01
Au    1.6328854421137507E+01    1.2859569192568163E+01    2.9932106258407565E+01
     &END COORD
     &KIND Au
       BASIS_SET TZVP-MOLOPT-SR-GTH-q11
       ELEMENT Au
       POTENTIAL GTH-PBE-q11
       &POTENTIAL
1 0 10
0.5900000000000000E+00 1  0.1051717881000000E+02
3
0.5438473300000000E+00 2  0.5786811030000000E+01 -0.2250679660000000E+01
0.2905614950000000E+01
0.6091729800000000E+00 2  0.4284048730000000E+01 -0.4071285200000000E+01
0.4817209620000000E+01
0.4373092200000000E+00 2 -0.7403281240000000E+01  0.3010193070000000E+01
-0.3413238110000000E+01
       &END POTENTIAL
     &END KIND
     &TOPOLOGY
       COORD_FILE_NAME junction_65.xyz
       COORD_FILE_FORMAT  XYZ
       NUMBER_OF_ATOMS  193
       MULTIPLE_UNIT_CELL  1 1 1
     &END TOPOLOGY
   &END SUBSYS
   &PRINT
     &TOTAL_NUMBERS  ON
     &END TOTAL_NUMBERS
   &END PRINT
 &END FORCE_EVAL
