 # Version information for this restart file 
 # current date 2022-05-02 19:58:08.904
 # current working dir /rds/general/user/jj1921/home/junction/ortho/cell_65
 # Program compiled at                              Thu 12 Jul 13:52:12 BST 2018
 # Program compiled on                                      build-2.hpc.ic.ac.uk
 # Program compiled for                                       Linux-x86-64-intel
 # Source code revision number                                         svn:18464
 &GLOBAL
   PRINT_LEVEL  MEDIUM
   PROJECT_NAME Au_junction
   RUN_TYPE  CELL_OPT
 &END GLOBAL
 &MOTION
   &CELL_OPT
     OPTIMIZER  BFGS
     STEP_START_VAL  89
     TYPE  DIRECT_CELL_OPT
     KEEP_ANGLES  T
     KEEP_SYMMETRY  T
     CONSTRAINT  XY
   &END CELL_OPT
   &CONSTRAINT
     &FIXED_ATOMS
       COMPONENTS_TO_FIX  XYZ
       LIST  1..36
     &END FIXED_ATOMS
   &END CONSTRAINT
   &PRINT
     &TRAJECTORY  SILENT
       &EACH
         CELL_OPT  1
       &END EACH
     &END TRAJECTORY
   &END PRINT
 &END MOTION
 &FORCE_EVAL
   METHOD  QS
   STRESS_TENSOR  ANALYTICAL
   &DFT
     BASIS_SET_FILE_NAME /rds/general/user/jj1921/home/BASIS_COM_MOLOPT_GTH
     POTENTIAL_FILE_NAME /rds/general/user/jj1921/home/GTH_POTENTIALS
     &SCF
       MAX_SCF  500
       EPS_SCF     9.9999999999999995E-08
       CHOLESKY  INVERSE
       SCF_GUESS  ATOMIC
       ADDED_MOS  20
       &DIAGONALIZATION  T
         ALGORITHM  STANDARD
       &END DIAGONALIZATION
       &SMEAR  T
         METHOD  FERMI_DIRAC
         ELECTRONIC_TEMPERATURE     3.0000000000000000E+02
       &END SMEAR
       &MIXING  T
         METHOD  BROYDEN_MIXING
         ALPHA     4.0000000000000002E-01
         BETA     5.0000000000000000E-01
         NBUFFER  8
       &END MIXING
     &END SCF
     &QS
       EPS_DEFAULT     1.0000000000000000E-14
       METHOD  GPW
     &END QS
     &MGRID
       NGRIDS  4
       CUTOFF     5.0000000000000000E+02
       REL_CUTOFF     4.0000000000000000E+01
     &END MGRID
     &XC
       DENSITY_CUTOFF     1.0000000000000000E-10
       GRADIENT_CUTOFF     1.0000000000000000E-10
       TAU_CUTOFF     1.0000000000000000E-10
       &XC_FUNCTIONAL  NO_SHORTCUT
         &PBE  T
         &END PBE
       &END XC_FUNCTIONAL
     &END XC
     &KPOINTS
       SCHEME MONKHORST-PACK 4 4 1
       FULL_GRID  T
     &END KPOINTS
   &END DFT
   &SUBSYS
     &CELL
       A     1.7811878396732904E+01    0.0000000000000000E+00    0.0000000000000000E+00
       B     0.0000000000000000E+00    1.5425539180689926E+01    0.0000000000000000E+00
       C     0.0000000000000000E+00    0.0000000000000000E+00    3.3042305289079572E+01
       PERIODIC  XYZ
       MULTIPLE_UNIT_CELL  1 1 1
       SYMMETRY  ORTHORHOMBIC
     &END CELL
     &COORD
Au    1.4843231999999993E+00    8.5697439999999980E-01    0.0000000000000000E+00
Au    4.4529695999999976E+00    8.5697439999999980E-01    0.0000000000000000E+00
Au    7.4216159999999967E+00    8.5697439999999980E-01    0.0000000000000000E+00
Au    1.0390262399999997E+01    8.5697439999999980E-01    0.0000000000000000E+00
Au    1.3358908799999995E+01    8.5697439999999980E-01    0.0000000000000000E+00
Au    1.6327555199999992E+01    8.5697439999999980E-01    0.0000000000000000E+00
Au    0.0000000000000000E+00    3.4278975999999992E+00    0.0000000000000000E+00
Au    2.9686463999999986E+00    3.4278975999999992E+00    0.0000000000000000E+00
Au    5.9372927999999972E+00    3.4278975999999992E+00    0.0000000000000000E+00
Au    8.9059391999999953E+00    3.4278975999999992E+00    0.0000000000000000E+00
Au    1.1874585599999994E+01    3.4278975999999992E+00    0.0000000000000000E+00
Au    1.4843231999999993E+01    3.4278975999999992E+00    0.0000000000000000E+00
Au    1.4843231999999993E+00    5.9988207899999981E+00    0.0000000000000000E+00
Au    4.4529695999999976E+00    5.9988207899999981E+00    0.0000000000000000E+00
Au    7.4216159999999967E+00    5.9988207899999981E+00    0.0000000000000000E+00
Au    1.0390262399999997E+01    5.9988207899999981E+00    0.0000000000000000E+00
Au    1.3358908799999995E+01    5.9988207899999981E+00    0.0000000000000000E+00
Au    1.6327555199999992E+01    5.9988207899999981E+00    0.0000000000000000E+00
Au    0.0000000000000000E+00    8.5697439899999992E+00    0.0000000000000000E+00
Au    2.9686463999999986E+00    8.5697439899999992E+00    0.0000000000000000E+00
Au    5.9372927999999972E+00    8.5697439899999992E+00    0.0000000000000000E+00
Au    8.9059391999999953E+00    8.5697439899999992E+00    0.0000000000000000E+00
Au    1.1874585599999994E+01    8.5697439899999992E+00    0.0000000000000000E+00
Au    1.4843231999999993E+01    8.5697439899999992E+00    0.0000000000000000E+00
Au    1.4843231999999993E+00    1.1140667189999997E+01    0.0000000000000000E+00
Au    4.4529695999999976E+00    1.1140667189999997E+01    0.0000000000000000E+00
Au    7.4216159999999967E+00    1.1140667189999997E+01    0.0000000000000000E+00
Au    1.0390262399999997E+01    1.1140667189999997E+01    0.0000000000000000E+00
Au    1.3358908799999995E+01    1.1140667189999997E+01    0.0000000000000000E+00
Au    1.6327555199999992E+01    1.1140667189999997E+01    0.0000000000000000E+00
Au    0.0000000000000000E+00    1.3711590380000002E+01    0.0000000000000000E+00
Au    2.9686463999999986E+00    1.3711590380000002E+01    0.0000000000000000E+00
Au    5.9372927999999972E+00    1.3711590380000002E+01    0.0000000000000000E+00
Au    8.9059391999999953E+00    1.3711590380000002E+01    0.0000000000000000E+00
Au    1.1874585599999994E+01    1.3711590380000002E+01    0.0000000000000000E+00
Au    1.4843231999999993E+01    1.3711590380000002E+01    0.0000000000000000E+00
Au    2.4752709665430061E-09    1.7125436697046987E+00    2.4032905002070906E+00
Au    2.9651420868957192E+00    1.7172990038668203E+00    2.3997739879245930E+00
Au    5.9313495585933111E+00    1.7121655897017991E+00    2.4023159614329521E+00
Au    8.9059391994956982E+00    1.7303235939760522E+00    2.4147777481654544E+00
Au    1.1880528841604834E+01    1.7121655892182532E+00    2.4023159606551681E+00
Au    1.4846736313906018E+01    1.7172990031149249E+00    2.3997739875511215E+00
Au    1.4852100866224978E+00    4.2814196309820076E+00    2.3990307788809684E+00
Au    4.4637531477502392E+00    4.2919506998475967E+00    2.4301528228681097E+00
Au    7.4163864103391575E+00    4.2902727028554191E+00    2.4271193528855344E+00
Au    1.0395491987568526E+01    4.2902727025902250E+00    2.4271193562907523E+00
Au    1.3348125255712427E+01    4.2919506989448575E+00    2.4301528181206056E+00
Au    1.6326668315495017E+01    4.2814196313835042E+00    2.3990307788728105E+00
Au    1.8832904147740696E-09    6.8505264046678294E+00    2.3983939884589391E+00
Au    2.9667207962881168E+00    6.8493605206834625E+00    2.3997537679997176E+00
Au    5.9409134508882389E+00    6.8482639683152673E+00    2.4290970555419276E+00
Au    8.9059392009257721E+00    6.8556739281733146E+00    2.4812011487018992E+00
Au    1.1870964948062683E+01    6.8482639702806898E+00    2.4290970576432871E+00
Au    1.4845157603295251E+01    6.8493605220241705E+00    2.3997537694578792E+00
Au    1.4879951786507015E+00    9.4246333984837580E+00    2.4014774139719899E+00
Au    4.4665670974742770E+00    9.4180716414983987E+00    2.4108778397582933E+00
Au    7.4292926064533384E+00    9.4291149704292945E+00    2.4291501206490218E+00
Au    1.0382585795565380E+01    9.4291149709429050E+00    2.4291501200896688E+00
Au    1.3345311304674887E+01    9.4180716423546880E+00    2.4108778411706169E+00
Au    1.6323883222144918E+01    9.4246333982551107E+00    2.4014774136618051E+00
Au    1.6855739973737508E-09    1.1993491812280496E+01    2.4063105842999910E+00
Au    2.9716351546713806E+00    1.1994971063832555E+01    2.4008656517472100E+00
Au    5.9430264978819816E+00    1.2000818212460086E+01    2.4006298010963554E+00
Au    8.9059392018901082E+00    1.1982511491358059E+01    2.4362843942843222E+00
Au    1.1868851904880000E+01    1.2000818211527353E+01    2.4006298022342110E+00
Au    1.4840243246918766E+01    1.1994971064855861E+01    2.4008656512060735E+00
Au    1.4824042540872198E+00    1.4568315385044263E+01    2.4028336230777514E+00
Au    4.4489574177273710E+00    1.4569559341982401E+01    2.4005360398704330E+00
Au    7.4263100847830410E+00    1.4571287696059759E+01    2.3997297537792095E+00
Au    1.0385568316506374E+01    1.4571287696375583E+01    2.3997297533426374E+00
Au    1.3362920983553570E+01    1.4569559342532958E+01    2.4005360397854894E+00
Au    1.6329474147340630E+01    1.4568315384581023E+01    2.4028336223838722E+00
Au    2.9571829038263353E-09   -4.6619348490622332E-03    4.8501450807709539E+00
Au    2.9476660500273821E+00   -9.4870128725808942E-03    4.8501752884063363E+00
Au    5.9061111633101513E+00   -2.4524191731043490E-02    4.8540032272361779E+00
Au    8.9059392015882022E+00   -1.2489205666295038E-02    4.8502221085628667E+00
Au    1.1905767238583834E+01   -2.4524190744116693E-02    4.8540032267284490E+00
Au    1.4864212354054162E+01   -9.4870133565343080E-03    4.8501752896838743E+00
Au    1.4663028318336684E+00    2.5564146464678470E+00    4.8531639706919103E+00
Au    4.4040297658965102E+00    2.5308789680280608E+00    4.8547298859041179E+00
Au    7.3704080711131965E+00    2.4823804966232177E+00    4.8538788889428535E+00
Au    1.0441470329726684E+01    2.4823804984226534E+00    4.8538788902756931E+00
Au    1.3407848636589648E+01    2.5308789663357816E+00    4.8547298868450204E+00
Au    1.6345575570503264E+01    2.5564146447853426E+00    4.8531639691993922E+00
Au    3.1206405817146658E-09    5.1316995385760666E+00    4.8471293297854512E+00
Au    2.9150960996265396E+00    5.1252046487076584E+00    4.8543977235311360E+00
Au    5.8267812141545257E+00    5.0747631849754544E+00    4.9236985994634859E+00
Au    8.9059391966868873E+00    4.9433734046506581E+00    4.8025718482837911E+00
Au    1.1985097189788121E+01    5.0747631809832230E+00    4.9236985793150758E+00
Au    1.4896782302769545E+01    5.1252046492484675E+00    4.8543977215756193E+00
Au    1.4534348613545467E+00    7.7148798373243812E+00    4.8501851971143752E+00
Au    4.3525528615154663E+00    7.7180485384724440E+00    4.8512929588015847E+00
Au    7.2496911818233292E+00    7.8089658087587015E+00    4.8105810550878907E+00
Au    1.0562187218003666E+01    7.8089658114304514E+00    4.8105810579546562E+00
Au    1.3459325539990544E+01    7.7180485417904396E+00    4.8512929605562709E+00
Au    1.6358443539771585E+01    7.7148798379724361E+00    4.8501851969004361E+00
Au    2.4485105885191455E-09    1.0286177365914023E+01    4.8410548907594748E+00
Au    2.9426749241718633E+00    1.0299827238080852E+01    4.8442949336430745E+00
Au    5.8769125655025363E+00    1.0363317685707525E+01    4.8536556369859740E+00
Au    8.9059392007150056E+00    1.0400850172836323E+01    4.9345193437695301E+00
Au    1.1934965840073186E+01    1.0363317688395023E+01    4.8536556386385667E+00
Au    1.4869203480305668E+01    1.0299827240367661E+01    4.8442949355145659E+00
Au    1.4756524123617163E+00    1.2856562528360756E+01    4.8453202835325158E+00
Au    4.4222840183101209E+00    1.2877273798701852E+01    4.8530964760349926E+00
Au    7.4044442977285092E+00    1.2895461110737710E+01    4.8534587156537174E+00
Au    1.0407434106041613E+01    1.2895461111693205E+01    4.8534587157383156E+00
Au    1.3389594386410595E+01    1.2877273801657060E+01    4.8530964755407755E+00
Au    1.6336225990070368E+01    1.2856562529145350E+01    4.8453202840082641E+00
Au    7.4335992723491833E+00    5.9980970697740794E+00    6.9844124915041581E+00
Au    1.0378279143902356E+01    5.9980970751483023E+00    6.9844124838739789E+00
Au    8.9059392106508106E+00    8.5278663743929481E+00    7.0006566253565898E+00
Au    8.9059392136841780E+00    6.7687162160871228E+00    9.1954881831935591E+00
Au    8.9059379414986282E+00    6.2317153061657686E+00    1.1765222542644397E+01
Au    8.9059424237694671E+00    7.5887208479992943E+00    1.4012109379415126E+01
Au    8.9059352859941434E+00    7.1256765253575152E+00    1.6596793173763889E+01
Au    8.9059417136223455E+00    6.0083814196761631E+00    1.8971460304500539E+01
Au    8.9059385096588262E+00    7.3456797601492774E+00    2.1214633239780607E+01
Au    8.9059391969483297E+00    6.9032643415833332E+00    2.3816075537431246E+01
Au    8.9059392020941814E+00    5.1730152339745947E+00    2.6030031857576724E+01
Au    7.4460049879173535E+00    7.7061425273976312E+00    2.6026514792199755E+01
Au    1.0365873426558172E+01    7.7061425262567163E+00    2.6026514810612944E+01
Au    2.5429564914051106E-09    1.7114877156344581E+00    2.8199094760503094E+01
Au    2.9480314179225933E+00    1.7084550677174719E+00    2.8192147924380308E+01
Au    5.8973271477354237E+00    1.6757805993892469E+00    2.8191273503117408E+01
Au    8.9059392016718881E+00    1.6650880664226484E+00    2.8172697494352050E+01
Au    1.1914551251878928E+01    1.6757806020381747E+00    2.8191273503481842E+01
Au    1.4863846984278640E+01    1.7084550644792516E+00    2.8192147924957233E+01
Au    1.4719301899957304E+00    4.2791067710787010E+00    2.8196191584629261E+01
Au    4.4132835205986947E+00    4.2657492875365861E+00    2.8202751461141730E+01
Au    7.3638116040583368E+00    4.1833300401759761E+00    2.8151593807084765E+01
Au    1.0448066788266676E+01    4.1833300445256905E+00    2.8151593805096446E+01
Au    1.3398594883098491E+01    4.2657492825622967E+00    2.8202751459887857E+01
Au    1.6339948210443819E+01    4.2791067748685467E+00    2.8196191586711688E+01
Au    3.9072938688278798E-09    6.8622132485979002E+00    2.8195252041260336E+01
Au    2.9165952605882448E+00    6.8545317468328388E+00    2.8194347634344474E+01
Au    5.8216434892982125E+00    6.8692570700393043E+00    2.8149089827371849E+01
Au    8.9059391973212669E+00    6.8643901581930722E+00    2.8365595097505011E+01
Au    1.1990234915837366E+01    6.8692570611838821E+00    2.8149089833297548E+01
Au    1.4895283141330973E+01    6.8545317453188863E+00    2.8194347634956131E+01
Au    1.4655387522183552E+00    9.4394832309904082E+00    2.8191052197431009E+01
Au    4.3988155436027672E+00    9.4607785230647181E+00    2.8170657854489235E+01
Au    7.3490458343535003E+00    9.5285786973507438E+00    2.8151150280437289E+01
Au    1.0462832570090729E+01    9.5285787116720631E+00    2.8151150290415945E+01
Au    1.3413062854099401E+01    9.4607785197919565E+00    2.8170657857562272E+01
Au    1.6346339648411600E+01    9.4394832339084527E+00    2.8191052198053775E+01
Au    1.8036505468841089E-09    1.2007738229800642E+01    2.8191321631388547E+01
Au    2.9487520368781599E+00    1.2013915976966306E+01    2.8191243959275951E+01
Au    5.9089943876989039E+00    1.2047393951708139E+01    2.8194427093656785E+01
Au    8.9059391954777762E+00    1.2041702237464376E+01    2.8205895870910837E+01
Au    1.1902884013342979E+01    1.2047393958297601E+01    2.8194427093160609E+01
Au    1.4863126362673507E+01    1.2013915976252438E+01    2.8191243959440843E+01
Au    1.4765453433385909E+00    1.4568834493385006E+01    2.8196203223839706E+01
Au    4.4292653397096773E+00    1.4572106476482785E+01    2.8191718333918629E+01
Au    7.4105289265515992E+00    1.4572763085222554E+01    2.8191026725771117E+01
Au    1.0401349473244073E+01    1.4572763082530992E+01    2.8191026726478974E+01
Au    1.3382613060120280E+01    1.4572106477098242E+01    2.8191718334059310E+01
Au    1.6335333056889120E+01    1.4568834496295244E+01    2.8196203222721373E+01
Au    1.7688027878275002E-09    8.1958414466041076E-04    3.0638837824059831E+01
Au    2.9678563674331735E+00    4.7051352736882440E-03    3.0639201958524559E+01
Au    5.9407222667095798E+00   -3.8347154496433879E-03    3.0641925852619675E+01
Au    8.9059392007085254E+00    1.1477930155822328E-02    3.0632983347000845E+01
Au    1.1871156133365790E+01   -3.8347171660027273E-03    3.0641925853591367E+01
Au    1.4844022031826951E+01    4.7051369310003623E-03    3.0639201958844094E+01
Au    1.4841203403997671E+00    2.5765474136635800E+00    3.0638146617167330E+01
Au    4.4574703981291766E+00    2.5719305009469191E+00    3.0638986402672607E+01
Au    7.4144101233715594E+00    2.5747526983629481E+00    3.0622039653853292E+01
Au    1.0397468277042906E+01    2.5747527001297148E+00    3.0622039652410209E+01
Au    1.3354408001671763E+01    2.5719305003615656E+00    3.0638986403231858E+01
Au    1.6327758061003930E+01    2.5765474125407848E+00    3.0638146616061992E+01
Au    2.3088856253800276E-09    5.1452252623349430E+00    3.0642554690241354E+01
Au    2.9690707731774926E+00    5.1463666698623163E+00    3.0639948425262045E+01
Au    5.9474052449286390E+00    5.1507116271866069E+00    3.0586590194310382E+01
Au    8.9059391989519696E+00    5.1270327367602349E+00    3.0632980517211170E+01
Au    1.1864473154965134E+01    5.1507116238487640E+00    3.0586590189338345E+01
Au    1.4842807628401843E+01    5.1463666715319514E+00    3.0639948429267463E+01
Au    1.4826949609696272E+00    7.7185125527411858E+00    3.0642206696599384E+01
Au    4.4513662806536276E+00    7.7085668739113835E+00    3.0625581586843420E+01
Au    7.4088330246830933E+00    7.7217901733216667E+00    3.0633275865062906E+01
Au    1.0403045376534918E+01    7.7217901736959211E+00    3.0633275865699844E+01
Au    1.3360512118213343E+01    7.7085668737384845E+00    3.0625581585980672E+01
Au    1.6329183440265105E+01    7.7185125524214921E+00    3.0642206694212572E+01
Au    2.2370643761901444E-09    1.0287135934755888E+01    3.0641464981009655E+01
Au    2.9755970296780876E+00    1.0277780708405709E+01    3.0634378775208695E+01
Au    5.9404439909612181E+00    1.0288670438267177E+01    3.0625557296963525E+01
Au    8.9059391971552113E+00    1.0271826330108631E+01    3.0587799023945372E+01
Au    1.1871434410202310E+01    1.0288670438526372E+01    3.0625557299703384E+01
Au    1.4836281371618435E+01    1.0277780709892399E+01    3.0634378775866502E+01
Au    1.4844330743829877E+00    1.2854122897550432E+01    3.0639874431686117E+01
Au    4.4459534087995873E+00    1.2854778657268060E+01    3.0641008542413712E+01
Au    7.4219566901472209E+00    1.2852974469946775E+01    3.0640562258727122E+01
Au    1.0389921707239791E+01    1.2852974470521470E+01    3.0640562259637196E+01
Au    1.3365924990936200E+01    1.2854778656789746E+01    3.0641008543235817E+01
Au    1.6327445324702069E+01    1.2854122896941934E+01    3.0639874430050089E+01
     &END COORD
     &KIND Au
       BASIS_SET TZVP-MOLOPT-SR-GTH-q11
       ELEMENT Au
       POTENTIAL GTH-PBE-q11
       &POTENTIAL
1 0 10
0.5900000000000000E+00 1  0.1051717881000000E+02
3
0.5438473300000000E+00 2  0.5786811030000000E+01 -0.2250679660000000E+01
0.2905614950000000E+01
0.6091729800000000E+00 2  0.4284048730000000E+01 -0.4071285200000000E+01
0.4817209620000000E+01
0.4373092200000000E+00 2 -0.7403281240000000E+01  0.3010193070000000E+01
-0.3413238110000000E+01
       &END POTENTIAL
     &END KIND
     &TOPOLOGY
       COORD_FILE_NAME junction_65.xyz
       COORD_FILE_FORMAT  XYZ
       NUMBER_OF_ATOMS  193
       MULTIPLE_UNIT_CELL  1 1 1
     &END TOPOLOGY
   &END SUBSYS
   &PRINT
     &TOTAL_NUMBERS  ON
     &END TOTAL_NUMBERS
   &END PRINT
 &END FORCE_EVAL
