 # Version information for this restart file 
 # current date 2022-05-08 21:15:02.118
 # current working dir /rds/general/user/jj1921/home/junction/ortho/cell_65
 # Program compiled at                              Thu 12 Jul 13:52:12 BST 2018
 # Program compiled on                                      build-2.hpc.ic.ac.uk
 # Program compiled for                                       Linux-x86-64-intel
 # Source code revision number                                         svn:18464
 &GLOBAL
   PRINT_LEVEL  MEDIUM
   PROJECT_NAME Au_junction
   RUN_TYPE  CELL_OPT
 &END GLOBAL
 &MOTION
   &CELL_OPT
     OPTIMIZER  BFGS
     STEP_START_VAL  197
     TYPE  DIRECT_CELL_OPT
     KEEP_ANGLES  T
     KEEP_SYMMETRY  T
     CONSTRAINT  XY
   &END CELL_OPT
   &CONSTRAINT
     &FIXED_ATOMS
       COMPONENTS_TO_FIX  XYZ
       LIST  1..36
     &END FIXED_ATOMS
   &END CONSTRAINT
   &PRINT
     &TRAJECTORY  SILENT
       &EACH
         CELL_OPT  1
       &END EACH
     &END TRAJECTORY
   &END PRINT
 &END MOTION
 &FORCE_EVAL
   METHOD  QS
   STRESS_TENSOR  ANALYTICAL
   &DFT
     BASIS_SET_FILE_NAME /rds/general/user/jj1921/home/BASIS_COM_MOLOPT_GTH
     POTENTIAL_FILE_NAME /rds/general/user/jj1921/home/GTH_POTENTIALS
     &SCF
       MAX_SCF  500
       EPS_SCF     9.9999999999999995E-08
       CHOLESKY  INVERSE
       SCF_GUESS  ATOMIC
       ADDED_MOS  20
       &DIAGONALIZATION  T
         ALGORITHM  STANDARD
       &END DIAGONALIZATION
       &SMEAR  T
         METHOD  FERMI_DIRAC
         ELECTRONIC_TEMPERATURE     3.0000000000000000E+02
       &END SMEAR
       &MIXING  T
         METHOD  BROYDEN_MIXING
         ALPHA     4.0000000000000002E-01
         BETA     5.0000000000000000E-01
         NBUFFER  8
       &END MIXING
     &END SCF
     &QS
       EPS_DEFAULT     1.0000000000000000E-14
       METHOD  GPW
     &END QS
     &MGRID
       NGRIDS  4
       CUTOFF     5.0000000000000000E+02
       REL_CUTOFF     4.0000000000000000E+01
     &END MGRID
     &XC
       DENSITY_CUTOFF     1.0000000000000000E-10
       GRADIENT_CUTOFF     1.0000000000000000E-10
       TAU_CUTOFF     1.0000000000000000E-10
       &XC_FUNCTIONAL  NO_SHORTCUT
         &PBE  T
         &END PBE
       &END XC_FUNCTIONAL
     &END XC
     &KPOINTS
       SCHEME MONKHORST-PACK 4 4 1
       FULL_GRID  T
     &END KPOINTS
   &END DFT
   &SUBSYS
     &CELL
       A     1.7811878396732908E+01    0.0000000000000000E+00    0.0000000000000000E+00
       B     0.0000000000000000E+00    1.5425539180689926E+01    0.0000000000000000E+00
       C     0.0000000000000000E+00    0.0000000000000000E+00    3.2200405280717916E+01
       PERIODIC  XYZ
       MULTIPLE_UNIT_CELL  1 1 1
       SYMMETRY  ORTHORHOMBIC
     &END CELL
     &COORD
Au    1.4843231999999993E+00    8.5697440000000025E-01    0.0000000000000000E+00
Au    4.4529695999999976E+00    8.5697440000000025E-01    0.0000000000000000E+00
Au    7.4216159999999967E+00    8.5697440000000025E-01    0.0000000000000000E+00
Au    1.0390262400000001E+01    8.5697440000000025E-01    0.0000000000000000E+00
Au    1.3358908799999995E+01    8.5697440000000025E-01    0.0000000000000000E+00
Au    1.6327555199999992E+01    8.5697440000000025E-01    0.0000000000000000E+00
Au    0.0000000000000000E+00    3.4278976000000010E+00    0.0000000000000000E+00
Au    2.9686463999999986E+00    3.4278976000000010E+00    0.0000000000000000E+00
Au    5.9372927999999972E+00    3.4278976000000010E+00    0.0000000000000000E+00
Au    8.9059391999999953E+00    3.4278976000000010E+00    0.0000000000000000E+00
Au    1.1874585599999994E+01    3.4278976000000010E+00    0.0000000000000000E+00
Au    1.4843231999999993E+01    3.4278976000000010E+00    0.0000000000000000E+00
Au    1.4843231999999993E+00    5.9988207899999999E+00    0.0000000000000000E+00
Au    4.4529695999999976E+00    5.9988207899999999E+00    0.0000000000000000E+00
Au    7.4216159999999967E+00    5.9988207899999999E+00    0.0000000000000000E+00
Au    1.0390262400000001E+01    5.9988207899999999E+00    0.0000000000000000E+00
Au    1.3358908799999995E+01    5.9988207899999999E+00    0.0000000000000000E+00
Au    1.6327555199999992E+01    5.9988207899999999E+00    0.0000000000000000E+00
Au    0.0000000000000000E+00    8.5697439900000028E+00    0.0000000000000000E+00
Au    2.9686463999999986E+00    8.5697439900000028E+00    0.0000000000000000E+00
Au    5.9372927999999972E+00    8.5697439900000028E+00    0.0000000000000000E+00
Au    8.9059391999999953E+00    8.5697439900000028E+00    0.0000000000000000E+00
Au    1.1874585599999994E+01    8.5697439900000028E+00    0.0000000000000000E+00
Au    1.4843231999999993E+01    8.5697439900000028E+00    0.0000000000000000E+00
Au    1.4843231999999993E+00    1.1140667190000002E+01    0.0000000000000000E+00
Au    4.4529695999999976E+00    1.1140667190000002E+01    0.0000000000000000E+00
Au    7.4216159999999967E+00    1.1140667190000002E+01    0.0000000000000000E+00
Au    1.0390262400000001E+01    1.1140667190000002E+01    0.0000000000000000E+00
Au    1.3358908799999995E+01    1.1140667190000002E+01    0.0000000000000000E+00
Au    1.6327555199999992E+01    1.1140667190000002E+01    0.0000000000000000E+00
Au    0.0000000000000000E+00    1.3711590380000011E+01    0.0000000000000000E+00
Au    2.9686463999999986E+00    1.3711590380000011E+01    0.0000000000000000E+00
Au    5.9372927999999972E+00    1.3711590380000011E+01    0.0000000000000000E+00
Au    8.9059391999999953E+00    1.3711590380000011E+01    0.0000000000000000E+00
Au    1.1874585599999994E+01    1.3711590380000011E+01    0.0000000000000000E+00
Au    1.4843231999999993E+01    1.3711590380000011E+01    0.0000000000000000E+00
Au   -2.2287265789115404E-06    1.6916710007410487E+00    2.4109571308764921E+00
Au    2.9586864450354318E+00    1.6957463874082510E+00    2.4069566664494042E+00
Au    5.9215323367168384E+00    1.7135330489476273E+00    2.4048882571399655E+00
Au    8.9059410349473200E+00    1.7343106185841912E+00    2.4165421640401856E+00
Au    1.1890346574370914E+01    1.7135338968867264E+00    2.4048879136884769E+00
Au    1.4853186405207214E+01    1.6957523473673233E+00    2.4069583092629223E+00
Au    1.4795276314032249E+00    4.2597786471696679E+00    2.4052570562891571E+00
Au    4.4489756602219908E+00    4.2749845944570648E+00    2.4269243860161755E+00
Au    7.4084862801535154E+00    4.2873309076124642E+00    2.4237956165848447E+00
Au    1.0403393468729865E+01    4.2873347232523376E+00    2.4238085092837869E+00
Au    1.3362889433122945E+01    4.2749940594163771E+00    2.4269313328369657E+00
Au    1.6332343591146252E+01    4.2597811504075587E+00    2.4052577031298408E+00
Au    1.1187726748988690E-06    6.8320726553107924E+00    2.4082283919918392E+00
Au    2.9596190000538543E+00    6.8332035799719657E+00    2.4052692584603106E+00
Au    5.9298788051739217E+00    6.8394800380105609E+00    2.4195257408351596E+00
Au    8.9059403920747151E+00    6.8529165657806352E+00    2.4751295861560041E+00
Au    1.1881993837358406E+01    6.8394872169944909E+00    2.4195465326095298E+00
Au    1.4852259637379241E+01    6.8332026827565757E+00    2.4052690716007321E+00
Au    1.4869838422944619E+00    9.4059845630862835E+00    2.4102264354899066E+00
Au    4.4599460478343476E+00    9.4109489214681599E+00    2.4175694686434426E+00
Au    7.4273924824097159E+00    9.4424232531067673E+00    2.4144782683332222E+00
Au    1.0384494093254483E+01    9.4424145481941029E+00    2.4144866488474666E+00
Au    1.3351935187243669E+01    9.4109504226017098E+00    2.4175732321949415E+00
Au    1.6324894616323466E+01    9.4059852340960983E+00    2.4102236720375783E+00
Au   -1.3519547080387854E-06    1.1975029340695935E+01    2.4096026488164846E+00
Au    2.9662868872500789E+00    1.1980618891117265E+01    2.4101550715512716E+00
Au    5.9350875464675132E+00    1.2007731751728555E+01    2.4055020395170543E+00
Au    8.9059431989359279E+00    1.2016448616735575E+01    2.4187407758636206E+00
Au    1.1876792136597450E+01    1.2007731170413141E+01    2.4055020139369336E+00
Au    1.4845592607657744E+01    1.1980622409549788E+01    2.4101515345637927E+00
Au    1.4772874277723151E+00    1.4547505777414067E+01    2.4095976847143881E+00
Au    4.4435690767511806E+00    1.4561425009097949E+01    2.4067786966775913E+00
Au    7.4179795022178210E+00    1.4587295775790210E+01    2.4060803431439628E+00
Au    1.0393899226218458E+01    1.4587298021781587E+01    2.4060799108385607E+00
Au    1.3368311679604643E+01    1.4561426476520346E+01    2.4067759985676838E+00
Au    1.6334588874021144E+01    1.4547508086379189E+01    2.4095957289626080E+00
Au   -6.2247639296190310E-07   -3.6150946462109819E-02    4.8741212759771235E+00
Au    2.9337378315788283E+00   -3.0903616732106263E-02    4.8675503975247185E+00
Au    5.8914067513233110E+00   -1.9027181605211909E-02    4.8655803626097303E+00
Au    8.9059409933153155E+00   -4.5430767298096017E-03    4.8547304924951513E+00
Au    1.1920477045919563E+01   -1.9021581574028650E-02    4.8655772638089578E+00
Au    1.4878137067443086E+01   -3.0893932275228457E-02    4.8675511412982848E+00
Au    1.4637343830645768E+00    2.5276238482591840E+00    4.8740041539096826E+00
Au    4.3925476285376286E+00    2.5117378900556919E+00    4.8696809011094935E+00
Au    7.3584057856806071E+00    2.4782633686611391E+00    4.8555961800659189E+00
Au    1.0453471539947026E+01    2.4782696063341452E+00    4.8556008754493662E+00
Au    1.3419321115066406E+01    2.5117538043352039E+00    4.8696892896030839E+00
Au    1.6348138240037187E+01    2.5276263357808131E+00    4.8739988142869661E+00
Au   -6.0886032664659683E-06    5.1016158966891805E+00    4.8665915349797109E+00
Au    2.9048813228863613E+00    5.0996457783505305E+00    4.8696641340916473E+00
Au    5.8106742497168273E+00    5.0591344138821128E+00    4.9136693923169403E+00
Au    8.9059283855967966E+00    4.9203128098508602E+00    4.7991965354473978E+00
Au    1.2001184156296643E+01    5.0591437279666120E+00    4.9137106957904697E+00
Au    1.4906978818950403E+01    5.0996496568028791E+00    4.8696686540220666E+00
Au    1.4569577494033874E+00    7.6862839255276629E+00    4.8671836461484519E+00
Au    4.3470484657619171E+00    7.6912837381715233E+00    4.8577191344650954E+00
Au    7.2347022816112272E+00    7.8281535634588355E+00    4.7765677683399037E+00
Au    1.0577167151587805E+01    7.8281625114988058E+00    4.7766019851224613E+00
Au    1.3464835194569265E+01    7.6912918558240584E+00    4.8577219516385535E+00
Au    1.6354926371296116E+01    7.6862825052381556E+00    4.8671754554098055E+00
Au    7.1321149940481907E-07    1.0254845690893903E+01    4.8568755679056581E+00
Au    2.9395201597969240E+00    1.0273018313837014E+01    4.8560822671291453E+00
Au    5.8708299639990571E+00    1.0375477391404413E+01    4.8507489491478832E+00
Au    8.9059380438622249E+00    1.0442821961262311E+01    4.8737892737308197E+00
Au    1.1941064499348577E+01    1.0375483893270275E+01    4.8507502230876565E+00
Au    1.4872368666324437E+01    1.0273024610163850E+01    4.8560859765258666E+00
Au    1.4701964554592919E+00    1.2826711327066993E+01    4.8620398346815490E+00
Au    4.4089015594901841E+00    1.2868178151800953E+01    4.8673711262284769E+00
Au    7.3900735695169910E+00    1.2917877960705267E+01    4.8564722352801217E+00
Au    1.0421812352416772E+01    1.2917880243553835E+01    4.8564688159522298E+00
Au    1.3402984213901330E+01    1.2868187945308810E+01    4.8673704822737376E+00
Au    1.6341680339972825E+01    1.2826716308512225E+01    4.8620399167175199E+00
Au    7.4251008116340937E+00    6.0313257765128672E+00    6.9332055891191162E+00
Au    1.0386666626051111E+01    6.0313928953844993E+00    6.9332478990308424E+00
Au    8.9059309092080614E+00    8.5949775041715242E+00    6.9220927569160926E+00
Au    8.9056741949864069E+00    6.8671677764468138E+00    9.0921985497496163E+00
Au    8.9034411006700207E+00    6.7714578374071115E+00    1.1714088238544656E+01
Au    8.9108571306282354E+00    8.3844568356748859E+00    1.3773377898496088E+01
Au    8.9020235563806036E+00    7.0603403757349845E+00    1.6027314509443958E+01
Au    8.9101123568332063E+00    5.6519313270379854E+00    1.8236325291786990E+01
Au    8.9038909302192284E+00    7.1395223676695103E+00    2.0386300313986780E+01
Au    8.9058236352333289E+00    6.8947411598063058E+00    2.3003416491036951E+01
Au    8.9059403029501247E+00    5.1601655417393131E+00    2.5194039899458648E+01
Au    7.4355541239964289E+00    7.7004793200462158E+00    2.5194760992667312E+01
Au    1.0376310305816315E+01    7.7004485814177848E+00    2.5194773184509206E+01
Au   -1.3561624057684718E-06    1.7162546623665076E+00    2.7342609466437821E+01
Au    2.9441719515873146E+00    1.7125100926055290E+00    2.7340022714516117E+01
Au    5.8916915485505292E+00    1.6777116784876625E+00    2.7342107023392209E+01
Au    8.9059367852955518E+00    1.6726902036379128E+00    2.7328017050691912E+01
Au    1.1920185884703747E+01    1.6777083782066278E+00    2.7342106597430121E+01
Au    1.4867711993310754E+01    1.7124992218444866E+00    2.7340024559043908E+01
Au    1.4721264852322242E+00    4.2835489908619548E+00    2.7344285590791355E+01
Au    4.4066589889337466E+00    4.2681123985300760E+00    2.7349658727065609E+01
Au    7.3581604554083953E+00    4.1810888499184440E+00    2.7304172976147889E+01
Au    1.0453712318118784E+01    4.1810955041971267E+00    2.7304152485775628E+01
Au    1.3405224980936836E+01    4.2680973815712449E+00    2.7349647369216790E+01
Au    1.6339754312424176E+01    4.2835480936822883E+00    2.7344295688175734E+01
Au    1.3439728195405037E-06    6.8682057962048697E+00    2.7342804038711812E+01
Au    2.9125602232191716E+00    6.8606428399174142E+00    2.7341145101977080E+01
Au    5.8095876872335719E+00    6.8735469238298723E+00    2.7302903279827301E+01
Au    8.9059275834840896E+00    6.8631719756317215E+00    2.7510837381174586E+01
Au    1.2002293754948758E+01    6.8735220024917689E+00    2.7302902357952544E+01
Au    1.4899318711895624E+01    6.8606428688678607E+00    2.7341145798543845E+01
Au    1.4668524519372121E+00    9.4453643295467504E+00    2.7339436765797718E+01
Au    4.3976353444390028E+00    9.4639369472768813E+00    2.7316246230786874E+01
Au    7.3442894097452038E+00    9.5373294262239039E+00    2.7296279138881300E+01
Au    1.0467573060492414E+01    9.5373549363738501E+00    2.7296280872097007E+01
Au    1.3414230692001356E+01    9.4639333393483032E+00    2.7316255538247923E+01
Au    1.6345023425330258E+01    9.4453686623074748E+00    2.7339443429562898E+01
Au   -6.7665357137795695E-07    1.2012222544682968E+01    2.7337198796744353E+01
Au    2.9479003049846808E+00    1.2015742384072304E+01    2.7337417934335054E+01
Au    5.9040769940712172E+00    1.2054366666143393E+01    2.7342020343488283E+01
Au    8.9059304585396699E+00    1.2044812691384555E+01    2.7350510423777127E+01
Au    1.1907800021086654E+01    1.2054366947891568E+01    2.7342016958921633E+01
Au    1.4863977426261023E+01    1.2015742390689828E+01    2.7337417730811257E+01
Au    1.4741015206769197E+00    1.4573516021651477E+01    2.7342723317124673E+01
Au    4.4250175121502382E+00    1.4576113533812787E+01    2.7340742564208679E+01
Au    7.4101122951468774E+00    1.4578482495706647E+01    2.7343319772356168E+01
Au    1.0401764449823746E+01    1.4578479956857711E+01    2.7343324507111586E+01
Au    1.3386860646070009E+01    1.4576109615263940E+01    2.7340745084724123E+01
Au    1.6337774513571031E+01    1.4573518067356192E+01    2.7342717837181546E+01
Au   -1.4544706094329361E-06    6.0545237119340621E-03    2.9793109042730684E+01
Au    2.9658150755143033E+00    8.3883334904825899E-03    2.9791572322843191E+01
Au    5.9360117111708721E+00   -4.0511915602725523E-03    2.9793391104801067E+01
Au    8.9059398730066857E+00    1.0197580301127857E-02    2.9787895640323857E+01
Au    1.1875865920853084E+01   -4.0521711679758843E-03    2.9793393687636357E+01
Au    1.4846062692382835E+01    8.3840744020420490E-03    2.9791575209231663E+01
Au    1.4852310896689864E+00    2.5773136930956690E+00    2.9790955367145685E+01
Au    4.4536268500810605E+00    2.5759926181724668E+00    2.9793704625129141E+01
Au    7.4157931963845636E+00    2.5766003174407142E+00    2.9779600495041656E+01
Au    1.0396087118869024E+01    2.5766034534836937E+00    2.9779589213839213E+01
Au    1.3358251074643638E+01    2.5759910195014930E+00    2.9793703429260827E+01
Au    1.6326647975315193E+01    2.5773094763397113E+00    2.9790959127458567E+01
Au    2.0894333087763840E-06    5.1525727643175490E+00    2.9792892525095702E+01
Au    2.9678953646671151E+00    5.1491479599276033E+00    2.9794333610398677E+01
Au    5.9421767531177059E+00    5.1509469079946530E+00    2.9743082747613435E+01
Au    8.9059403269069009E+00    5.1226263956865745E+00    2.9787427138135058E+01
Au    1.1869699444682521E+01    5.1509389595207438E+00    2.9743075575136540E+01
Au    1.4843980354664206E+01    5.1491475900748105E+00    2.9794333997032243E+01
Au    1.4821192511875536E+00    7.7243944674940686E+00    2.9795379245303437E+01
Au    4.4521160980618033E+00    7.7151322162595006E+00    2.9782071393740914E+01
Au    7.4043576936644575E+00    7.7245092264263810E+00    2.9784856886519709E+01
Au    1.0407522995398082E+01    7.7245078130641538E+00    2.9784851589313583E+01
Au    1.3359756785287894E+01    7.7151300329632129E+00    2.9782062560671715E+01
Au    1.6329757744973755E+01    7.7243917619993878E+00    2.9795379046727618E+01
Au    5.2989158656536492E-07    1.0297442425270216E+01    2.9792961764355617E+01
Au    2.9768097715468866E+00    1.0284475801964103E+01    2.9786818265827488E+01
Au    5.9396910340390354E+00    1.0289500033356267E+01    2.9780053813884692E+01
Au    8.9059327842017382E+00    1.0271344358229806E+01    2.9740694985612752E+01
Au    1.1872184195995088E+01    1.0289496127532713E+01    2.9780050135239485E+01
Au    1.4835070171608358E+01    1.0284477553475194E+01    2.9786822986482356E+01
Au    1.4814691823518238E+00    1.2861011347594044E+01    2.9792128282628823E+01
Au    4.4462009544072423E+00    1.2857089545077923E+01    2.9793271278396478E+01
Au    7.4215787605970966E+00    1.2849749263499728E+01    2.9793857219376726E+01
Au    1.0390297935347226E+01    1.2849746037722996E+01    2.9793856639628267E+01
Au    1.3365674904271863E+01    1.2857087236773003E+01    2.9793272566422363E+01
Au    1.6330408394101045E+01    1.2861010041121942E+01    2.9792129007467071E+01
     &END COORD
     &KIND Au
       BASIS_SET TZVP-MOLOPT-SR-GTH-q11
       ELEMENT Au
       POTENTIAL GTH-PBE-q11
       &POTENTIAL
1 0 10
0.5900000000000000E+00 1  0.1051717881000000E+02
3
0.5438473300000000E+00 2  0.5786811030000000E+01 -0.2250679660000000E+01
0.2905614950000000E+01
0.6091729800000000E+00 2  0.4284048730000000E+01 -0.4071285200000000E+01
0.4817209620000000E+01
0.4373092200000000E+00 2 -0.7403281240000000E+01  0.3010193070000000E+01
-0.3413238110000000E+01
       &END POTENTIAL
     &END KIND
     &TOPOLOGY
       COORD_FILE_NAME junction_65.xyz
       COORD_FILE_FORMAT  XYZ
       NUMBER_OF_ATOMS  193
       MULTIPLE_UNIT_CELL  1 1 1
     &END TOPOLOGY
   &END SUBSYS
   &PRINT
     &TOTAL_NUMBERS  ON
     &END TOTAL_NUMBERS
   &END PRINT
 &END FORCE_EVAL
