 # Version information for this restart file 
 # current date 2022-04-25 22:11:36.644
 # current working dir /rds/general/user/jj1921/home/junction/ortho/cell_65
 # Program compiled at                              Thu 12 Jul 13:52:12 BST 2018
 # Program compiled on                                      build-2.hpc.ic.ac.uk
 # Program compiled for                                       Linux-x86-64-intel
 # Source code revision number                                         svn:18464
 &GLOBAL
   PRINT_LEVEL  MEDIUM
   PROJECT_NAME Au_junction
   RUN_TYPE  CELL_OPT
 &END GLOBAL
 &MOTION
   &CELL_OPT
     OPTIMIZER  BFGS
     STEP_START_VAL  1
     TYPE  DIRECT_CELL_OPT
     KEEP_ANGLES  T
     KEEP_SYMMETRY  T
     CONSTRAINT  XY
   &END CELL_OPT
   &CONSTRAINT
     &FIXED_ATOMS
       COMPONENTS_TO_FIX  XYZ
       LIST  1..36
     &END FIXED_ATOMS
   &END CONSTRAINT
   &PRINT
     &TRAJECTORY  SILENT
       &EACH
         CELL_OPT  1
       &END EACH
     &END TRAJECTORY
   &END PRINT
 &END MOTION
 &FORCE_EVAL
   METHOD  QS
   STRESS_TENSOR  ANALYTICAL
   &DFT
     BASIS_SET_FILE_NAME /rds/general/user/jj1921/home/BASIS_COM_MOLOPT_GTH
     POTENTIAL_FILE_NAME /rds/general/user/jj1921/home/GTH_POTENTIALS
     &SCF
       MAX_SCF  500
       EPS_SCF     9.9999999999999995E-08
       CHOLESKY  INVERSE
       SCF_GUESS  ATOMIC
       ADDED_MOS  20
       &DIAGONALIZATION  T
         ALGORITHM  STANDARD
       &END DIAGONALIZATION
       &SMEAR  T
         METHOD  FERMI_DIRAC
         ELECTRONIC_TEMPERATURE     3.0000000000000000E+02
       &END SMEAR
       &MIXING  T
         METHOD  BROYDEN_MIXING
         ALPHA     4.0000000000000002E-01
         BETA     5.0000000000000000E-01
         NBUFFER  8
       &END MIXING
     &END SCF
     &QS
       EPS_DEFAULT     1.0000000000000000E-14
       METHOD  GPW
     &END QS
     &MGRID
       NGRIDS  4
       CUTOFF     5.0000000000000000E+02
       REL_CUTOFF     4.0000000000000000E+01
     &END MGRID
     &XC
       DENSITY_CUTOFF     1.0000000000000000E-10
       GRADIENT_CUTOFF     1.0000000000000000E-10
       TAU_CUTOFF     1.0000000000000000E-10
       &XC_FUNCTIONAL  NO_SHORTCUT
         &PBE  T
         &END PBE
       &END XC_FUNCTIONAL
     &END XC
     &KPOINTS
       SCHEME MONKHORST-PACK 4 4 1
       FULL_GRID  T
     &END KPOINTS
   &END DFT
   &SUBSYS
     &CELL
       A     1.7811878396732897E+01    0.0000000000000000E+00    0.0000000000000000E+00
       B     0.0000000000000000E+00    1.5425539180689926E+01    0.0000000000000000E+00
       C     0.0000000000000000E+00    0.0000000000000000E+00    3.3941068622981057E+01
       PERIODIC  XYZ
       MULTIPLE_UNIT_CELL  1 1 1
       SYMMETRY  ORTHORHOMBIC
     &END CELL
     &COORD
Au    1.4843231999999995E+00    8.5697440000000003E-01    0.0000000000000000E+00
Au    4.4529695999999985E+00    8.5697440000000003E-01    0.0000000000000000E+00
Au    7.4216159999999975E+00    8.5697440000000003E-01    0.0000000000000000E+00
Au    1.0390262399999997E+01    8.5697440000000003E-01    0.0000000000000000E+00
Au    1.3358908799999996E+01    8.5697440000000003E-01    0.0000000000000000E+00
Au    1.6327555199999995E+01    8.5697440000000003E-01    0.0000000000000000E+00
Au    0.0000000000000000E+00    3.4278976000000001E+00    0.0000000000000000E+00
Au    2.9686463999999990E+00    3.4278976000000001E+00    0.0000000000000000E+00
Au    5.9372927999999980E+00    3.4278976000000001E+00    0.0000000000000000E+00
Au    8.9059391999999971E+00    3.4278976000000001E+00    0.0000000000000000E+00
Au    1.1874585599999996E+01    3.4278976000000001E+00    0.0000000000000000E+00
Au    1.4843231999999995E+01    3.4278976000000001E+00    0.0000000000000000E+00
Au    1.4843231999999995E+00    5.9988207899999999E+00    0.0000000000000000E+00
Au    4.4529695999999985E+00    5.9988207899999999E+00    0.0000000000000000E+00
Au    7.4216159999999975E+00    5.9988207899999999E+00    0.0000000000000000E+00
Au    1.0390262399999997E+01    5.9988207899999999E+00    0.0000000000000000E+00
Au    1.3358908799999996E+01    5.9988207899999999E+00    0.0000000000000000E+00
Au    1.6327555199999995E+01    5.9988207899999999E+00    0.0000000000000000E+00
Au    0.0000000000000000E+00    8.5697439900000010E+00    0.0000000000000000E+00
Au    2.9686463999999990E+00    8.5697439900000010E+00    0.0000000000000000E+00
Au    5.9372927999999980E+00    8.5697439900000010E+00    0.0000000000000000E+00
Au    8.9059391999999971E+00    8.5697439900000010E+00    0.0000000000000000E+00
Au    1.1874585599999996E+01    8.5697439900000010E+00    0.0000000000000000E+00
Au    1.4843231999999995E+01    8.5697439900000010E+00    0.0000000000000000E+00
Au    1.4843231999999995E+00    1.1140667190000000E+01    0.0000000000000000E+00
Au    4.4529695999999985E+00    1.1140667190000000E+01    0.0000000000000000E+00
Au    7.4216159999999975E+00    1.1140667190000000E+01    0.0000000000000000E+00
Au    1.0390262399999997E+01    1.1140667190000000E+01    0.0000000000000000E+00
Au    1.3358908799999996E+01    1.1140667190000000E+01    0.0000000000000000E+00
Au    1.6327555199999995E+01    1.1140667190000000E+01    0.0000000000000000E+00
Au    0.0000000000000000E+00    1.3711590380000002E+01    0.0000000000000000E+00
Au    2.9686463999999990E+00    1.3711590380000002E+01    0.0000000000000000E+00
Au    5.9372927999999980E+00    1.3711590380000002E+01    0.0000000000000000E+00
Au    8.9059391999999971E+00    1.3711590380000002E+01    0.0000000000000000E+00
Au    1.1874585599999996E+01    1.3711590380000002E+01    0.0000000000000000E+00
Au    1.4843231999999995E+01    1.3711590380000002E+01    0.0000000000000000E+00
Au    9.4556836623558812E-11    1.7140598381657106E+00    2.4233829143252872E+00
Au    2.9686559769188827E+00    1.7138735903729778E+00    2.4232992732611449E+00
Au    5.9372726626302894E+00    1.7140630054980073E+00    2.4233732614724186E+00
Au    8.9059391999995370E+00    1.7141818961292341E+00    2.4235281292341750E+00
Au    1.1874605737371951E+01    1.7140630054987374E+00    2.4233732615138668E+00
Au    1.4843222423016547E+01    1.7138735903735300E+00    2.4232992732630856E+00
Au    1.4842575411601866E+00    4.2848684509469406E+00    2.4232751857505113E+00
Au    4.4534907872082190E+00    4.2852139399179467E+00    2.4239762822050359E+00
Au    7.4220945522174526E+00    4.2849735245723659E+00    2.4237755418894356E+00
Au    1.0389783847777446E+01    4.2849735245707050E+00    2.4237755418892362E+00
Au    1.3358387612783028E+01    4.2852139399167717E+00    2.4239762821935060E+00
Au    1.6327620858802472E+01    4.2848684509435380E+00    2.4232751857730475E+00
Au    9.7805480378642582E-11    6.8557736248986618E+00    2.4233122053136835E+00
Au    2.9687725235908076E+00    6.8557467474922742E+00    2.4233330144006602E+00
Au    5.9375665178806223E+00    6.8561561077297490E+00    2.4237905099375685E+00
Au    8.9059392000016064E+00    6.8557304399645087E+00    2.4229169306135434E+00
Au    1.1874311882126044E+01    6.8561561077269042E+00    2.4237905099411656E+00
Au    1.4843105876352572E+01    6.8557467474910592E+00    2.4233330143983594E+00
Au    1.4844011942225233E+00    9.4267517307838418E+00    2.4233820085664184E+00
Au    4.4532129904519921E+00    9.4265663620704991E+00    2.4234618640252998E+00
Au    7.4214250788127112E+00    9.4262977413801590E+00    2.4237715510852689E+00
Au    1.0390453321183079E+01    9.4262977413807416E+00    2.4237715510847520E+00
Au    1.3358665409539316E+01    9.4265663620704991E+00    2.4234618640379488E+00
Au    1.6327477205739310E+01    9.4267517307803121E+00    2.4233820085806599E+00
Au    9.7887304277566935E-11    1.1997607054890338E+01    2.4233674092279553E+00
Au    2.9686652454590141E+00    1.1997649276703452E+01    2.4233423035245196E+00
Au    5.9373460679656205E+00    1.1997492838162083E+01    2.4234025039619618E+00
Au    8.9059392000043545E+00    1.1997060716353785E+01    2.4240208730973767E+00
Au    1.1874532332045433E+01    1.1997492838162048E+01    2.4234025039637435E+00
Au    1.4843213154487717E+01    1.1997649276703740E+01    2.4233423035153021E+00
Au    1.4843094072190965E+00    1.4568578826413573E+01    2.4233802017756076E+00
Au    4.4529616899668776E+00    1.4568588687399879E+01    2.4233589852210971E+00
Au    7.4216407987662549E+00    1.4568601276440930E+01    2.4233009152182285E+00
Au    1.0390237601233100E+01    1.4568601276441512E+01    2.4233009152169549E+00
Au    1.3358916710030913E+01    1.4568588687404654E+01    2.4233589852243496E+00
Au    1.6327568992748887E+01    1.4568578826410336E+01    2.4233802017904522E+00
Au    7.2268662489756790E-11    3.3177674872419028E-05    4.8493152192804754E+00
Au    2.9686700259453476E+00    1.7811953468043789E-05    4.8492870980766103E+00
Au    5.9372906887339063E+00   -1.8442899666423483E-05    4.8493670160033435E+00
Au    8.9059391999992883E+00   -1.9176533248385146E-05    4.8492906420941404E+00
Au    1.1874587711268395E+01   -1.8442897754476001E-05    4.8493670160083449E+00
Au    1.4843208374006625E+01    1.7811948750406870E-05    4.8492870980847895E+00
Au    1.4842435427763319E+00    2.5708580449793157E+00    4.8493471850391217E+00
Au    4.4528772701942803E+00    2.5707148883610698E+00    4.8492482414095726E+00
Au    7.4213107289442402E+00    2.5700909103646250E+00    4.8492414353981541E+00
Au    1.0390567671053375E+01    2.5700909103633318E+00    4.8492414353962783E+00
Au    1.3359001129803303E+01    2.5707148883585083E+00    4.8492482414104039E+00
Au    1.6327634857202074E+01    2.5708580449884946E+00    4.8493471850823546E+00
Au    7.1806075342337483E-11    5.1418210868023690E+00    4.8493002914187233E+00
Au    2.9684331823490231E+00    5.1418404407271616E+00    4.8492600855125323E+00
Au    5.9368847419230262E+00    5.1415794310413814E+00    4.8538844142356643E+00
Au    8.9059391999989632E+00    5.1389495998726487E+00    4.8526872766490152E+00
Au    1.1874993658082865E+01    5.1415794310425804E+00    4.8538844142248614E+00
Au    1.4843445217604920E+01    5.1418404407263649E+00    4.8492600855291732E+00
Au    1.4843909458535052E+00    7.7128157240267088E+00    4.8493577553737879E+00
Au    4.4521912863135213E+00    7.7129047846159819E+00    4.8492689675016800E+00
Au    7.4190529478603233E+00    7.7142321238346208E+00    4.8525955284292808E+00
Au    1.0392825452135247E+01    7.7142321238388476E+00    4.8525955284216948E+00
Au    1.3359687113690319E+01    7.7129047846179821E+00    4.8492689675078706E+00
Au    1.6327487454122412E+01    7.7128157240410928E+00    4.8493577554214644E+00
Au    6.9669364592074051E-11    1.0283589631578666E+01    4.8492947344617576E+00
Au    2.9685815733255194E+00    1.0283754241423367E+01    4.8492958266702679E+00
Au    5.9366995630849173E+00    1.0284277713384368E+01    4.8492544883565607E+00
Au    8.9059391999991835E+00    1.0284077344093424E+01    4.8538844909314198E+00
Au    1.1875178836917987E+01    1.0284277713386293E+01    4.8492544883632611E+00
Au    1.4843296826625265E+01    1.0283754241418835E+01    4.8492958266798123E+00
Au    1.4844525080255138E+00    1.2854610600984701E+01    4.8492862342350396E+00
Au    4.4529285036664659E+00    1.2854559334688778E+01    4.8493329278827648E+00
Au    7.4215244114836763E+00    1.2854887647052928E+01    4.8492338758610014E+00
Au    1.0390353988525533E+01    1.2854887647052992E+01    4.8492338758566289E+00
Au    1.3358949896339194E+01    1.2854559334691505E+01    4.8493329278803827E+00
Au    1.6327425891960452E+01    1.2854610600996207E+01    4.8492862342780478E+00
Au    7.4258692074429220E+00    6.0012304431783212E+00    7.2693900067687309E+00
Au    1.0386009192556404E+01    6.0012304431781986E+00    7.2693900067738682E+00
Au    8.9059391999937390E+00    8.5648490195494844E+00    7.2693344076790005E+00
Au    8.9059392000272872E+00    6.8557910719830657E+00    9.6584215669577738E+00
Au    8.9059391999792314E+00    6.8557795132953547E+00    1.2119348973350560E+01
Au    8.9059392000032549E+00    6.8558768570274271E+00    1.4545872303897943E+01
Au    8.9059392000026243E+00    6.8557911066032657E+00    1.6970548941187168E+01
Au    8.9059392000058857E+00    6.8557109329867156E+00    1.9395128133932673E+01
Au    8.9059392000017770E+00    6.8558164224791271E+00    2.1821558722949973E+01
Au    8.9059391999932469E+00    6.8558084578627350E+00    2.4282446960181225E+01
Au    8.9059391999976771E+00    5.1467921009924504E+00    2.6671652793754866E+01
Au    7.4259342899845660E+00    7.7103174137457007E+00    2.6671557465480927E+01
Au    1.0385944110031993E+01    7.7103174137401655E+00    2.6671557465484799E+01
Au    7.6666369066756987E-11    1.7139171668597988E+00    2.9091821328159909E+01
Au    2.9686899115226084E+00    1.7140449416027217E+00    2.9091689186791303E+01
Au    5.9369787738325535E+00    1.7138295573994580E+00    2.9091911880727505E+01
Au    8.9059392000040543E+00    1.7133800577329037E+00    2.9091491276189316E+01
Au    1.1874899626181309E+01    1.7138295573991551E+00    2.9091911880735260E+01
Au    1.4843188488437089E+01    1.7140449416048882E+00    2.9091689186779632E+01
Au    1.4844873174389790E+00    4.2848164180149571E+00    2.9091727986042422E+01
Au    4.4525809424020313E+00    4.2846320521482522E+00    2.9092138849737673E+01
Au    7.4218508266579537E+00    4.2833247345688186E+00    2.9088042552176340E+01
Au    1.0390027573341465E+01    4.2833247345667083E+00    2.9088042552176535E+01
Au    1.3359297457595503E+01    4.2846320521458487E+00    2.9092138849735523E+01
Au    1.6327391082538718E+01    4.2848164180046089E+00    2.9091727986004862E+01
Au    6.9461478757383305E-11    6.8558978371037327E+00    2.9091738619861641E+01
Au    2.9684487007617131E+00    6.8556990720843487E+00    2.9091849886580224E+01
Au    5.9360208019719964E+00    6.8568138180403446E+00    2.9088136046326238E+01
Au    8.9059391999983966E+00    6.8558470780324141E+00    2.9089881018023952E+01
Au    1.1875857598031333E+01    6.8568138180466711E+00    2.9088136046326621E+01
Au    1.4843429699191130E+01    6.8556990720851170E+00    2.9091849886566987E+01
Au    1.4842242064992837E+00    9.4267183868212072E+00    2.9091723978454890E+01
Au    4.4525180506542172E+00    9.4269919973974989E+00    2.9091439039753393E+01
Au    7.4201182975814781E+00    9.4273290019470135E+00    2.9088082279710179E+01
Au    1.0391760102422177E+01    9.4273290019474683E+00    2.9088082279709209E+01
Au    1.3359360349340577E+01    9.4269919973936709E+00    2.9091439039761276E+01
Au    1.6327654193481408E+01    9.4267183868136328E+00    2.9091723978420841E+01
Au    6.9989726513083402E-11    1.1997657453348122E+01    2.9091760942608492E+01
Au    2.9686479741876548E+00    1.1997676878484956E+01    2.9091753063448877E+01
Au    5.9373000392535698E+00    1.1997952056834006E+01    2.9091905824470796E+01
Au    8.9059391999965545E+00    1.1998105522365609E+01    2.9092184595250643E+01
Au    1.1874578360746934E+01    1.1997952056832803E+01    2.9091905824472413E+01
Au    1.4843230425761368E+01    1.1997676878486972E+01    2.9091753063432115E+01
Au    1.4842883218011313E+00    1.4568474655250558E+01    2.9091787276086897E+01
Au    4.4530310261563075E+00    1.4568578297942150E+01    2.9091744577509299E+01
Au    7.4216216485617039E+00    1.4568556192650824E+01    2.9091684893806434E+01
Au    1.0390256751438141E+01    1.4568556192649796E+01    2.9091684893802686E+01
Au    1.3358847373839350E+01    1.4568578297942450E+01    2.9091744577509935E+01
Au    1.6327590078177021E+01    1.4568474655242040E+01    2.9091787276053079E+01
Au    9.4015830147242594E-11   -5.2218521330879386E-05    3.1517686275526490E+01
Au    2.9686821841679043E+00    6.3555399311453190E-05    3.1517684189224671E+01
Au    5.9372768807233145E+00   -3.1582909906016219E-05    3.1517749619011187E+01
Au    8.9059392000002937E+00    1.8220551707066236E-04    3.1517513966113981E+01
Au    1.1874601519279869E+01   -3.1582910706350722E-05    3.1517749619032617E+01
Au    1.4843196215768840E+01    6.3555399136262206E-05    3.1517684189221271E+01
Au    1.4844065078405064E+00    2.5709870056433197E+00    3.1517703862780092E+01
Au    4.4530467132146061E+00    2.5708506660210859E+00    3.1517746305976008E+01
Au    7.4214421260467773E+00    2.5712727906594450E+00    3.1517554594612051E+01
Au    1.0390436273960475E+01    2.5712727906643047E+00    3.1517554594602725E+01
Au    1.3358831686788879E+01    2.5708506660223778E+00    3.1517746305982424E+01
Au    1.6327471892137151E+01    2.5709870056459310E+00    3.1517703862791748E+01
Au    8.6542115119097418E-11    5.1418233102124153E+00    3.1517688239492276E+01
Au    2.9686274683786333E+00    5.1418935020112091E+00    3.1517774954281691E+01
Au    5.9373585921496508E+00    5.1418933938986022E+00    3.1516794660383948E+01
Au    8.9059391999940924E+00    5.1425195329724440E+00    3.1517777725436396E+01
Au    1.1874519807858100E+01    5.1418933938950371E+00    3.1516794660382388E+01
Au    1.4843250931557534E+01    5.1418935020114347E+00    3.1517774954283929E+01
Au    1.4843170071893241E+00    7.7127684806858845E+00    3.1517768816424308E+01
Au    4.4531876336637604E+00    7.7125217827162009E+00    3.1517598712023204E+01
Au    7.4222152675356341E+00    7.7124517534380894E+00    3.1517767791331345E+01
Au    1.0389663132461452E+01    7.7124517534379082E+00    3.1517767791326641E+01
Au    1.3358690766345763E+01    7.7125217827154149E+00    3.1517598712020021E+01
Au    1.6327561392782968E+01    7.7127684806897090E+00    3.1517768816459757E+01
Au    9.0825372620872399E-11    1.0283723344224345E+01    3.1517706167066049E+01
Au    2.9688590392436689E+00    1.0283544248904224E+01    3.1517621790135188E+01
Au    5.9376045194316971E+00    1.0283643541787042E+01    3.1517571854340716E+01
Au    8.9059391999968014E+00    1.0283611488319515E+01    3.1516849961559618E+01
Au    1.1874273880567699E+01    1.0283643541787892E+01    3.1517571854330409E+01
Au    1.4843019360684787E+01    1.0283544248906026E+01    3.1517621790124842E+01
Au    1.4843149973036587E+00    1.2854622764992669E+01    3.1517739019424734E+01
Au    4.4529330011560502E+00    1.2854607902742293E+01    3.1517719461087410E+01
Au    7.4215710547173845E+00    1.2854542318656133E+01    3.1517741334810417E+01
Au    1.0390307345281313E+01    1.2854542318657229E+01    3.1517741334792902E+01
Au    1.3358945398838554E+01    1.2854607902739390E+01    3.1517719461076378E+01
Au    1.6327563402663433E+01    1.2854622764993962E+01    3.1517739019444853E+01
     &END COORD
     &KIND Au
       BASIS_SET TZVP-MOLOPT-SR-GTH-q11
       ELEMENT Au
       POTENTIAL GTH-PBE-q11
       &POTENTIAL
 1 0 10
  0.5900000000000000E+00 1  0.1051717881000000E+02
 3
  0.5438473300000000E+00 2  0.5786811030000000E+01 -0.2250679660000000E+01
  0.2905614950000000E+01
  0.6091729800000000E+00 2  0.4284048730000000E+01 -0.4071285200000000E+01
  0.4817209620000000E+01
  0.4373092200000000E+00 2 -0.7403281240000000E+01  0.3010193070000000E+01
 -0.3413238110000000E+01
         # Potential name:  GTH-PBE-Q11  for symbol:  AU
         # Potential read from the potential filename: /rds/general/user/jj1921/home/GTH_POTENTIALS
       &END POTENTIAL
     &END KIND
     &TOPOLOGY
       COORD_FILE_NAME junction_65.xyz
       COORD_FILE_FORMAT  XYZ
       NUMBER_OF_ATOMS  193
       MULTIPLE_UNIT_CELL  1 1 1
     &END TOPOLOGY
   &END SUBSYS
   &PRINT
     &TOTAL_NUMBERS  ON
     &END TOTAL_NUMBERS
   &END PRINT
 &END FORCE_EVAL
