 # Version information for this restart file 
 # current date 2022-05-08 13:17:25.022
 # current working dir /rds/general/user/jj1921/home/junction/ortho/cell_65
 # Program compiled at                              Thu 12 Jul 13:52:12 BST 2018
 # Program compiled on                                      build-2.hpc.ic.ac.uk
 # Program compiled for                                       Linux-x86-64-intel
 # Source code revision number                                         svn:18464
 &GLOBAL
   PRINT_LEVEL  MEDIUM
   PROJECT_NAME Au_junction
   RUN_TYPE  CELL_OPT
 &END GLOBAL
 &MOTION
   &CELL_OPT
     OPTIMIZER  BFGS
     STEP_START_VAL  190
     TYPE  DIRECT_CELL_OPT
     KEEP_ANGLES  T
     KEEP_SYMMETRY  T
     CONSTRAINT  XY
   &END CELL_OPT
   &CONSTRAINT
     &FIXED_ATOMS
       COMPONENTS_TO_FIX  XYZ
       LIST  1..36
     &END FIXED_ATOMS
   &END CONSTRAINT
   &PRINT
     &TRAJECTORY  SILENT
       &EACH
         CELL_OPT  1
       &END EACH
     &END TRAJECTORY
   &END PRINT
 &END MOTION
 &FORCE_EVAL
   METHOD  QS
   STRESS_TENSOR  ANALYTICAL
   &DFT
     BASIS_SET_FILE_NAME /rds/general/user/jj1921/home/BASIS_COM_MOLOPT_GTH
     POTENTIAL_FILE_NAME /rds/general/user/jj1921/home/GTH_POTENTIALS
     &SCF
       MAX_SCF  500
       EPS_SCF     9.9999999999999995E-08
       CHOLESKY  INVERSE
       SCF_GUESS  ATOMIC
       ADDED_MOS  20
       &DIAGONALIZATION  T
         ALGORITHM  STANDARD
       &END DIAGONALIZATION
       &SMEAR  T
         METHOD  FERMI_DIRAC
         ELECTRONIC_TEMPERATURE     3.0000000000000000E+02
       &END SMEAR
       &MIXING  T
         METHOD  BROYDEN_MIXING
         ALPHA     4.0000000000000002E-01
         BETA     5.0000000000000000E-01
         NBUFFER  8
       &END MIXING
     &END SCF
     &QS
       EPS_DEFAULT     1.0000000000000000E-14
       METHOD  GPW
     &END QS
     &MGRID
       NGRIDS  4
       CUTOFF     5.0000000000000000E+02
       REL_CUTOFF     4.0000000000000000E+01
     &END MGRID
     &XC
       DENSITY_CUTOFF     1.0000000000000000E-10
       GRADIENT_CUTOFF     1.0000000000000000E-10
       TAU_CUTOFF     1.0000000000000000E-10
       &XC_FUNCTIONAL  NO_SHORTCUT
         &PBE  T
         &END PBE
       &END XC_FUNCTIONAL
     &END XC
     &KPOINTS
       SCHEME MONKHORST-PACK 4 4 1
       FULL_GRID  T
     &END KPOINTS
   &END DFT
   &SUBSYS
     &CELL
       A     1.7811878396732908E+01    0.0000000000000000E+00    0.0000000000000000E+00
       B     0.0000000000000000E+00    1.5425539180689926E+01    0.0000000000000000E+00
       C     0.0000000000000000E+00    0.0000000000000000E+00    3.2249094135835428E+01
       PERIODIC  XYZ
       MULTIPLE_UNIT_CELL  1 1 1
       SYMMETRY  ORTHORHOMBIC
     &END CELL
     &COORD
Au    1.4843231999999993E+00    8.5697440000000025E-01    0.0000000000000000E+00
Au    4.4529695999999976E+00    8.5697440000000025E-01    0.0000000000000000E+00
Au    7.4216159999999967E+00    8.5697440000000025E-01    0.0000000000000000E+00
Au    1.0390262400000001E+01    8.5697440000000025E-01    0.0000000000000000E+00
Au    1.3358908799999995E+01    8.5697440000000025E-01    0.0000000000000000E+00
Au    1.6327555199999992E+01    8.5697440000000025E-01    0.0000000000000000E+00
Au    0.0000000000000000E+00    3.4278976000000010E+00    0.0000000000000000E+00
Au    2.9686463999999986E+00    3.4278976000000010E+00    0.0000000000000000E+00
Au    5.9372927999999972E+00    3.4278976000000010E+00    0.0000000000000000E+00
Au    8.9059391999999953E+00    3.4278976000000010E+00    0.0000000000000000E+00
Au    1.1874585599999994E+01    3.4278976000000010E+00    0.0000000000000000E+00
Au    1.4843231999999993E+01    3.4278976000000010E+00    0.0000000000000000E+00
Au    1.4843231999999993E+00    5.9988207899999999E+00    0.0000000000000000E+00
Au    4.4529695999999976E+00    5.9988207899999999E+00    0.0000000000000000E+00
Au    7.4216159999999967E+00    5.9988207899999999E+00    0.0000000000000000E+00
Au    1.0390262400000001E+01    5.9988207899999999E+00    0.0000000000000000E+00
Au    1.3358908799999995E+01    5.9988207899999999E+00    0.0000000000000000E+00
Au    1.6327555199999992E+01    5.9988207899999999E+00    0.0000000000000000E+00
Au    0.0000000000000000E+00    8.5697439900000028E+00    0.0000000000000000E+00
Au    2.9686463999999986E+00    8.5697439900000028E+00    0.0000000000000000E+00
Au    5.9372927999999972E+00    8.5697439900000028E+00    0.0000000000000000E+00
Au    8.9059391999999953E+00    8.5697439900000028E+00    0.0000000000000000E+00
Au    1.1874585599999994E+01    8.5697439900000028E+00    0.0000000000000000E+00
Au    1.4843231999999993E+01    8.5697439900000028E+00    0.0000000000000000E+00
Au    1.4843231999999993E+00    1.1140667190000002E+01    0.0000000000000000E+00
Au    4.4529695999999976E+00    1.1140667190000002E+01    0.0000000000000000E+00
Au    7.4216159999999967E+00    1.1140667190000002E+01    0.0000000000000000E+00
Au    1.0390262400000001E+01    1.1140667190000002E+01    0.0000000000000000E+00
Au    1.3358908799999995E+01    1.1140667190000002E+01    0.0000000000000000E+00
Au    1.6327555199999992E+01    1.1140667190000002E+01    0.0000000000000000E+00
Au    0.0000000000000000E+00    1.3711590380000011E+01    0.0000000000000000E+00
Au    2.9686463999999986E+00    1.3711590380000011E+01    0.0000000000000000E+00
Au    5.9372927999999972E+00    1.3711590380000011E+01    0.0000000000000000E+00
Au    8.9059391999999953E+00    1.3711590380000011E+01    0.0000000000000000E+00
Au    1.1874585599999994E+01    1.3711590380000011E+01    0.0000000000000000E+00
Au    1.4843231999999993E+01    1.3711590380000011E+01    0.0000000000000000E+00
Au   -8.2640996095571592E-08    1.6999266752963427E+00    2.4135743323766339E+00
Au    2.9554358198856705E+00    1.7010492070548782E+00    2.4091021170322922E+00
Au    5.9221871082768702E+00    1.7136495736565021E+00    2.4039782192630743E+00
Au    8.9059400338922767E+00    1.7312654994380379E+00    2.4180910544892957E+00
Au    1.1889692414964330E+01    1.7136493090903755E+00    2.4039774812346546E+00
Au    1.4856441428023084E+01    1.7010512635024182E+00    2.4091033651813754E+00
Au    1.4815030247668077E+00    4.2679181994162807E+00    2.4107246040591588E+00
Au    4.4499971827146796E+00    4.2773952297511748E+00    2.4247372640797060E+00
Au    7.4092228222312659E+00    4.2875354350863848E+00    2.4206679071240473E+00
Au    1.0402658237534810E+01    4.2875371728478742E+00    2.4206736904909087E+00
Au    1.3361875381212743E+01    4.2773995570613437E+00    2.4247422062043311E+00
Au    1.6330374406732538E+01    4.2679188936092736E+00    2.4107250629322516E+00
Au    1.1613541394604839E-06    6.8430016196949346E+00    2.4126170326651066E+00
Au    2.9629938333929489E+00    6.8389544857799329E+00    2.4045107065182227E+00
Au    5.9295605759533174E+00    6.8433984053775969E+00    2.4218595778811052E+00
Au    8.9059401917720127E+00    6.8555006744956843E+00    2.4772833018968599E+00
Au    1.1882316188181914E+01    6.8434013036957824E+00    2.4218698838092636E+00
Au    1.4848886070203132E+01    6.8389532755270981E+00    2.4045102507972098E+00
Au    1.4879722556869486E+00    9.4142336322299052E+00    2.4110669018597553E+00
Au    4.4607617954752161E+00    9.4157580839236275E+00    2.4149882489550905E+00
Au    7.4256864842703081E+00    9.4382372994825587E+00    2.4231604184563600E+00
Au    1.0386196498463928E+01    9.4382324662015762E+00    2.4231652904353633E+00
Au    1.3351118201077687E+01    9.4157589901473084E+00    2.4149908298560256E+00
Au    1.6323906177252102E+01    9.4142338532567162E+00    2.4110653578455539E+00
Au   -5.3249413043571584E-07    1.1979929082576447E+01    2.4081903922970285E+00
Au    2.9688204893715278E+00    1.1988856609461827E+01    2.4083084142262203E+00
Au    5.9330789434574172E+00    1.2008140088918895E+01    2.4035597342393578E+00
Au    8.9059411565042073E+00    1.2001705179077657E+01    2.4242520936454848E+00
Au    1.1878800140965128E+01    1.2008140227611415E+01    2.4035599015744578E+00
Au    1.4843058613414900E+01    1.1988858439868766E+01    2.4083065704318547E+00
Au    1.4807691286348332E+00    1.4554012351560871E+01    2.4096664149213156E+00
Au    4.4435468568183545E+00    1.4567945457741507E+01    2.4094731744938707E+00
Au    7.4195971339964659E+00    1.4582226423546112E+01    2.4067369146272557E+00
Au    1.0392281028286062E+01    1.4582227688158733E+01    2.4067367016040957E+00
Au    1.3368333282005663E+01    1.4567946116949901E+01    2.4094719642261815E+00
Au    1.6331109084662081E+01    1.4554012939562442E+01    2.4096653585316830E+00
Au    4.7243740956515927E-07   -2.6348357960445549E-02    4.8691340109576755E+00
Au    2.9373121326054208E+00   -2.5218884869053305E-02    4.8703567721392851E+00
Au    5.8997006007620945E+00   -2.1562307128039304E-02    4.8667684161049056E+00
Au    8.9059400725401776E+00   -8.1689445158755133E-03    4.8528049793214434E+00
Au    1.1912181297475874E+01   -2.1560072266458903E-02    4.8667665552311137E+00
Au    1.4874565671353007E+01   -2.5214748587137993E-02    4.8703575919027120E+00
Au    1.4621474543514454E+00    2.5395273364856079E+00    4.8748878780391927E+00
Au    4.3938530173216259E+00    2.5127032967486014E+00    4.8663887350954189E+00
Au    7.3606976616516695E+00    2.4775469682340487E+00    4.8582343174450280E+00
Au    1.0451182787203042E+01    2.4775485600566971E+00    4.8582361192226795E+00
Au    1.3418021311698231E+01    2.5127129314512495E+00    4.8663918247644196E+00
Au    1.6349730459662105E+01    2.5395278417029998E+00    4.8748845482952712E+00
Au   -1.4899052213893026E-06    5.1194478840561413E+00    4.8686978646242594E+00
Au    2.9049765664450216E+00    5.1129492724371861E+00    4.8661646038590263E+00
Au    5.8027326917137163E+00    5.0566836662126251E+00    4.9057142337709818E+00
Au    8.9059379993358476E+00    4.9186547184227640E+00    4.7966829589739914E+00
Au    1.2009134606982125E+01    5.0566896824568870E+00    4.9057406218686603E+00
Au    1.4906893148360949E+01    5.1129499650260426E+00    4.8661656112104419E+00
Au    1.4557387602555989E+00    7.7036917412388997E+00    4.8667577063543916E+00
Au    4.3469757315684019E+00    7.7092095131857077E+00    4.8608994192104644E+00
Au    7.2337606878087097E+00    7.8157082465330792E+00    4.7948946841199902E+00
Au    1.0578116149352526E+01    7.8157094500364872E+00    4.7949105254024937E+00
Au    1.3464908512676688E+01    7.7092127181671861E+00    4.8609006248829330E+00
Au    1.6356145209981413E+01    7.7036904580488494E+00    4.8667529452973763E+00
Au    7.8446855093361932E-07    1.0273282994646667E+01    4.8597400608530741E+00
Au    2.9383940556194288E+00    1.0290587138643520E+01    4.8584360650487683E+00
Au    5.8739491037016727E+00    1.0368695050312029E+01    4.8542939957118802E+00
Au    8.9059381759748391E+00    1.0428270588301860E+01    4.9055042658265320E+00
Au    1.1937937749825474E+01    1.0368698173894199E+01    4.8542944270397719E+00
Au    1.4873490523783284E+01    1.0290590413181675E+01    4.8584381958577660E+00
Au    1.4720822852333206E+00    1.2841165994223816E+01    4.8624120637481338E+00
Au    4.4180369978223020E+00    1.2871197696614248E+01    4.8661180371313328E+00
Au    7.3969697452224388E+00    1.2906086861976858E+01    4.8557087173279667E+00
Au    1.0414912173227927E+01    1.2906087891664887E+01    4.8557068293785930E+00
Au    1.3393845957395550E+01    1.2871202789847597E+01    4.8661179767442508E+00
Au    1.6339796306522992E+01    1.2841168120495947E+01    4.8624123605303637E+00
Au    7.4196612022307447E+00    5.9967544553621801E+00    6.9349663532179555E+00
Au    1.0392157293877407E+01    5.9967998955386728E+00    6.9349981248423918E+00
Au    8.9059422301978799E+00    8.5542684220086560E+00    6.9397506141249172E+00
Au    8.9057903273629915E+00    6.8088441265063135E+00    9.1038110563365535E+00
Au    8.9043332343250174E+00    6.6233747310723281E+00    1.1707010366811513E+01
Au    8.9090846088085414E+00    8.2678053863811556E+00    1.3746533700177840E+01
Au    8.9033044434355233E+00    7.1488909775966025E+00    1.6115684145359502E+01
Au    8.9084922897166479E+00    5.7283126392819881E+00    1.8297592518096106E+01
Au    8.9047534719504178E+00    7.1942528442065337E+00    2.0460302639927125E+01
Au    8.9058796159605844E+00    6.8983312878504108E+00    2.3066442021926651E+01
Au    8.9059425474947886E+00    5.1659638305054347E+00    2.5248684320688280E+01
Au    7.4345996767944023E+00    7.7084884769312101E+00    2.5248332986438619E+01
Au    1.0377275295818938E+01    7.7084707051796162E+00    2.5248342305588583E+01
Au   -7.5494836895474608E-07    1.7067476129291199E+00    2.7390404109102089E+01
Au    2.9453295399179602E+00    1.7073801886637165E+00    2.7384865398650263E+01
Au    5.8963018552034745E+00    1.6730870684422692E+00    2.7391112156774234E+01
Au    8.9059374246482150E+00    1.6679289313365655E+00    2.7374296158490175E+01
Au    1.1915576120198768E+01    1.6730845310881339E+00    2.7391111741195012E+01
Au    1.4866552567585037E+01    1.7073738054418570E+00    2.7384866438873789E+01
Au    1.4701223152563818E+00    4.2778568646933337E+00    2.7391867724418567E+01
Au    4.4045334487661076E+00    4.2609864558927448E+00    2.7393885256456254E+01
Au    7.3564756980465518E+00    4.1753463532560922E+00    2.7350190196918916E+01
Au    1.0455399758918210E+01    4.1753493747348234E+00    2.7350179962230722E+01
Au    1.3407349059321016E+01    4.2609774847756663E+00    2.7393878914941688E+01
Au    1.6341758469501983E+01    4.2778562498058124E+00    2.7391873886044777E+01
Au    1.3260832482917430E-06    6.8628188513170052E+00    2.7390518601127923E+01
Au    2.9136939722233608E+00    6.8567774881824715E+00    2.7387889086672264E+01
Au    5.8099891097336398E+00    6.8706206563674899E+00    2.7356476615345237E+01
Au    8.9059339554397940E+00    6.8650063335006468E+00    2.7562889826283921E+01
Au    1.2001891353360898E+01    6.8706066758080855E+00    2.7356477888178532E+01
Au    1.4898185901731940E+01    6.8567775144752829E+00    2.7387890057217110E+01
Au    1.4676052062835039E+00    9.4424110959626582E+00    2.7384817348718844E+01
Au    4.3979205853699774E+00    9.4631603546563738E+00    2.7364057623359727E+01
Au    7.3452099303157485E+00    9.5485078698583354E+00    2.7349762392765083E+01
Au    1.0466659180167305E+01    9.5485218407691494E+00    2.7349764059981776E+01
Au    1.3413951062933906E+01    9.4631587407326698E+00    2.7364063798037783E+01
Au    1.6344271983263400E+01    9.4424135428593630E+00    2.7384821399238497E+01
Au   -2.6246682357337366E-07    1.2008210518778865E+01    2.7384411603835272E+01
Au    2.9470399767758364E+00    1.2016501486607812E+01    2.7384733830150459E+01
Au    5.9012105885073840E+00    1.2056148342992770E+01    2.7389416839355437E+01
Au    8.9059340279525312E+00    1.2048461869556853E+01    2.7396776819167652E+01
Au    1.1910667028768012E+01    1.2056148912660049E+01    2.7389415415028100E+01
Au    1.4864838036514890E+01    1.2016501682340627E+01    2.7384733736734773E+01
Au    1.4731663425661048E+00    1.4568789236653689E+01    2.7387087060479963E+01
Au    4.4255634436139362E+00    1.4577205459926935E+01    2.7392148399145796E+01
Au    7.4125248930087704E+00    1.4573637019369656E+01    2.7396462604115008E+01
Au    1.0399352080753946E+01    1.4573635656806179E+01    2.7396465379414906E+01
Au    1.3386315064182526E+01    1.4577203348164387E+01    2.7392149511628713E+01
Au    1.6338710983151877E+01    1.4568790359448370E+01    2.7387083684734037E+01
Au   -8.2850189107498504E-07    3.7699004178156476E-03    2.9842054162469097E+01
Au    2.9635914815447202E+00    5.9304425502211119E-03    2.9840172735301270E+01
Au    5.9347454962658226E+00   -3.8247593429244996E-03    2.9842793483908704E+01
Au    8.9059393943426262E+00    7.2440634577447347E-03    2.9835937244023548E+01
Au    1.1877132302582959E+01   -3.8256656615846172E-03    2.9842794889217696E+01
Au    1.4848286608216426E+01    5.9279811151693711E-03    2.9840174365212814E+01
Au    1.4829617652982703E+00    2.5759860551276672E+00    2.9838578118721681E+01
Au    4.4545326161929211E+00    2.5720449694615195E+00    2.9842024529468908E+01
Au    7.4144856462469733E+00    2.5750858453183723E+00    2.9830158782816060E+01
Au    1.0397393634867658E+01    2.5750871241846474E+00    2.9830152392205427E+01
Au    1.3357345434516962E+01    2.5720435256801499E+00    2.9842023813071361E+01
Au    1.6328916983450515E+01    2.5759835188975306E+00    2.9838580412744140E+01
Au    1.2432720075790758E-06    5.1484821412612627E+00    2.9836167979706559E+01
Au    2.9685083531964018E+00    5.1471609091224968E+00    2.9841949337905270E+01
Au    5.9405220145845430E+00    5.1487188348622492E+00    2.9793875421785600E+01
Au    8.9059399184689578E+00    5.1269536960110607E+00    2.9834947712962652E+01
Au    1.1871355641555137E+01    5.1487137040615343E+00    2.9793872130600143E+01
Au    1.4843368610124276E+01    5.1471607308766947E+00    2.9841949823490381E+01
Au    1.4852587514614330E+00    7.7232801259792057E+00    2.9839818144665458E+01
Au    4.4507097951511323E+00    7.7129945388244678E+00    2.9831375083897733E+01
Au    7.4051866567455402E+00    7.7237330081367634E+00    2.9836225922828611E+01
Au    1.0406693378093097E+01    7.7237325306586051E+00    2.9836224220015140E+01
Au    1.3361166308497316E+01    7.7129936617770820E+00    2.9831370696421455E+01
Au    1.6326620003604987E+01    7.7232785758333860E+00    2.9839818203611095E+01
Au    5.4747556977974375E-07    1.0291939178452550E+01    2.9837232276320972E+01
Au    2.9759069944959258E+00    1.0284523521164434E+01    2.9834271254818489E+01
Au    5.9368731095773191E+00    1.0290524477995055E+01    2.9831500532915761E+01
Au    8.9059350161986970E+00    1.0271216901006250E+01    2.9793520125271872E+01
Au    1.1875003723070334E+01    1.0290522768684825E+01    2.9831499125351439E+01
Au    1.4835972868869199E+01    1.0284524956363681E+01    2.9834274166384287E+01
Au    1.4834235853142381E+00    1.2858381765296951E+01    2.9840814269358717E+01
Au    4.4440200465992579E+00    1.2858045094548357E+01    2.9842157946695455E+01
Au    7.4212847132503583E+00    1.2848624229322064E+01    2.9842684803049142E+01
Au    1.0390592239138019E+01    1.2848622360984777E+01    2.9842684557781514E+01
Au    1.3367857067143333E+01    1.2858044239476559E+01    2.9842158821728013E+01
Au    1.6328454696097161E+01    1.2858381043606158E+01    2.9840814492854541E+01
     &END COORD
     &KIND Au
       BASIS_SET TZVP-MOLOPT-SR-GTH-q11
       ELEMENT Au
       POTENTIAL GTH-PBE-q11
       &POTENTIAL
1 0 10
0.5900000000000000E+00 1  0.1051717881000000E+02
3
0.5438473300000000E+00 2  0.5786811030000000E+01 -0.2250679660000000E+01
0.2905614950000000E+01
0.6091729800000000E+00 2  0.4284048730000000E+01 -0.4071285200000000E+01
0.4817209620000000E+01
0.4373092200000000E+00 2 -0.7403281240000000E+01  0.3010193070000000E+01
-0.3413238110000000E+01
       &END POTENTIAL
     &END KIND
     &TOPOLOGY
       COORD_FILE_NAME junction_65.xyz
       COORD_FILE_FORMAT  XYZ
       NUMBER_OF_ATOMS  193
       MULTIPLE_UNIT_CELL  1 1 1
     &END TOPOLOGY
   &END SUBSYS
   &PRINT
     &TOTAL_NUMBERS  ON
     &END TOTAL_NUMBERS
   &END PRINT
 &END FORCE_EVAL
