 # Version information for this restart file 
 # current date 2022-05-02 13:15:18.789
 # current working dir /rds/general/user/jj1921/home/junction/ortho/cell_65
 # Program compiled at                              Thu 12 Jul 13:52:12 BST 2018
 # Program compiled on                                      build-2.hpc.ic.ac.uk
 # Program compiled for                                       Linux-x86-64-intel
 # Source code revision number                                         svn:18464
 &GLOBAL
   PRINT_LEVEL  MEDIUM
   PROJECT_NAME Au_junction
   RUN_TYPE  CELL_OPT
 &END GLOBAL
 &MOTION
   &CELL_OPT
     OPTIMIZER  BFGS
     STEP_START_VAL  81
     TYPE  DIRECT_CELL_OPT
     KEEP_ANGLES  T
     KEEP_SYMMETRY  T
     CONSTRAINT  XY
   &END CELL_OPT
   &CONSTRAINT
     &FIXED_ATOMS
       COMPONENTS_TO_FIX  XYZ
       LIST  1..36
     &END FIXED_ATOMS
   &END CONSTRAINT
   &PRINT
     &TRAJECTORY  SILENT
       &EACH
         CELL_OPT  1
       &END EACH
     &END TRAJECTORY
   &END PRINT
 &END MOTION
 &FORCE_EVAL
   METHOD  QS
   STRESS_TENSOR  ANALYTICAL
   &DFT
     BASIS_SET_FILE_NAME /rds/general/user/jj1921/home/BASIS_COM_MOLOPT_GTH
     POTENTIAL_FILE_NAME /rds/general/user/jj1921/home/GTH_POTENTIALS
     &SCF
       MAX_SCF  500
       EPS_SCF     9.9999999999999995E-08
       CHOLESKY  INVERSE
       SCF_GUESS  ATOMIC
       ADDED_MOS  20
       &DIAGONALIZATION  T
         ALGORITHM  STANDARD
       &END DIAGONALIZATION
       &SMEAR  T
         METHOD  FERMI_DIRAC
         ELECTRONIC_TEMPERATURE     3.0000000000000000E+02
       &END SMEAR
       &MIXING  T
         METHOD  BROYDEN_MIXING
         ALPHA     4.0000000000000002E-01
         BETA     5.0000000000000000E-01
         NBUFFER  8
       &END MIXING
     &END SCF
     &QS
       EPS_DEFAULT     1.0000000000000000E-14
       METHOD  GPW
     &END QS
     &MGRID
       NGRIDS  4
       CUTOFF     5.0000000000000000E+02
       REL_CUTOFF     4.0000000000000000E+01
     &END MGRID
     &XC
       DENSITY_CUTOFF     1.0000000000000000E-10
       GRADIENT_CUTOFF     1.0000000000000000E-10
       TAU_CUTOFF     1.0000000000000000E-10
       &XC_FUNCTIONAL  NO_SHORTCUT
         &PBE  T
         &END PBE
       &END XC_FUNCTIONAL
     &END XC
     &KPOINTS
       SCHEME MONKHORST-PACK 4 4 1
       FULL_GRID  T
     &END KPOINTS
   &END DFT
   &SUBSYS
     &CELL
       A     1.7811878396732904E+01    0.0000000000000000E+00    0.0000000000000000E+00
       B     0.0000000000000000E+00    1.5425539180689926E+01    0.0000000000000000E+00
       C     0.0000000000000000E+00    0.0000000000000000E+00    3.3141466055297371E+01
       PERIODIC  XYZ
       MULTIPLE_UNIT_CELL  1 1 1
       SYMMETRY  ORTHORHOMBIC
     &END CELL
     &COORD
Au    1.4843231999999993E+00    8.5697439999999980E-01    0.0000000000000000E+00
Au    4.4529695999999976E+00    8.5697439999999980E-01    0.0000000000000000E+00
Au    7.4216159999999967E+00    8.5697439999999980E-01    0.0000000000000000E+00
Au    1.0390262399999997E+01    8.5697439999999980E-01    0.0000000000000000E+00
Au    1.3358908799999995E+01    8.5697439999999980E-01    0.0000000000000000E+00
Au    1.6327555199999992E+01    8.5697439999999980E-01    0.0000000000000000E+00
Au    0.0000000000000000E+00    3.4278975999999992E+00    0.0000000000000000E+00
Au    2.9686463999999986E+00    3.4278975999999992E+00    0.0000000000000000E+00
Au    5.9372927999999972E+00    3.4278975999999992E+00    0.0000000000000000E+00
Au    8.9059391999999953E+00    3.4278975999999992E+00    0.0000000000000000E+00
Au    1.1874585599999994E+01    3.4278975999999992E+00    0.0000000000000000E+00
Au    1.4843231999999993E+01    3.4278975999999992E+00    0.0000000000000000E+00
Au    1.4843231999999993E+00    5.9988207899999981E+00    0.0000000000000000E+00
Au    4.4529695999999976E+00    5.9988207899999981E+00    0.0000000000000000E+00
Au    7.4216159999999967E+00    5.9988207899999981E+00    0.0000000000000000E+00
Au    1.0390262399999997E+01    5.9988207899999981E+00    0.0000000000000000E+00
Au    1.3358908799999995E+01    5.9988207899999981E+00    0.0000000000000000E+00
Au    1.6327555199999992E+01    5.9988207899999981E+00    0.0000000000000000E+00
Au    0.0000000000000000E+00    8.5697439899999992E+00    0.0000000000000000E+00
Au    2.9686463999999986E+00    8.5697439899999992E+00    0.0000000000000000E+00
Au    5.9372927999999972E+00    8.5697439899999992E+00    0.0000000000000000E+00
Au    8.9059391999999953E+00    8.5697439899999992E+00    0.0000000000000000E+00
Au    1.1874585599999994E+01    8.5697439899999992E+00    0.0000000000000000E+00
Au    1.4843231999999993E+01    8.5697439899999992E+00    0.0000000000000000E+00
Au    1.4843231999999993E+00    1.1140667189999997E+01    0.0000000000000000E+00
Au    4.4529695999999976E+00    1.1140667189999997E+01    0.0000000000000000E+00
Au    7.4216159999999967E+00    1.1140667189999997E+01    0.0000000000000000E+00
Au    1.0390262399999997E+01    1.1140667189999997E+01    0.0000000000000000E+00
Au    1.3358908799999995E+01    1.1140667189999997E+01    0.0000000000000000E+00
Au    1.6327555199999992E+01    1.1140667189999997E+01    0.0000000000000000E+00
Au    0.0000000000000000E+00    1.3711590380000002E+01    0.0000000000000000E+00
Au    2.9686463999999986E+00    1.3711590380000002E+01    0.0000000000000000E+00
Au    5.9372927999999972E+00    1.3711590380000002E+01    0.0000000000000000E+00
Au    8.9059391999999953E+00    1.3711590380000002E+01    0.0000000000000000E+00
Au    1.1874585599999994E+01    1.3711590380000002E+01    0.0000000000000000E+00
Au    1.4843231999999993E+01    1.3711590380000002E+01    0.0000000000000000E+00
Au    2.3939370389061518E-09    1.7234034420546760E+00    2.3976000724864321E+00
Au    2.9789344523294590E+00    1.7185513325966442E+00    2.4026738329055126E+00
Au    5.9373045484627438E+00    1.7216536210024116E+00    2.4058639694054218E+00
Au    8.9059392003706144E+00    1.7221332581245121E+00    2.4135079840429685E+00
Au    1.1874573852391087E+01    1.7216536208535989E+00    2.4058639687244736E+00
Au    1.4832943949587811E+01    1.7185513327461415E+00    2.4026738347391956E+00
Au    1.4937529654061816E+00    4.2880835928842194E+00    2.3999486451277501E+00
Au    4.4780051545284962E+00    4.2949360800238310E+00    2.4397838113317416E+00
Au    7.4271124853370152E+00    4.2924869073471665E+00    2.4425632576001446E+00
Au    1.0384765912316514E+01    4.2924869081919752E+00    2.4425632594364535E+00
Au    1.3333873245758893E+01    4.2949360793146791E+00    2.4397838047671185E+00
Au    1.6318125435644205E+01    4.2880835934009163E+00    2.3999486469464184E+00
Au    2.2578335942054622E-09    6.8560232498186950E+00    2.4025451483215803E+00
Au    2.9806870751026358E+00    6.8473777356999488E+00    2.4047967023189578E+00
Au    5.9497148268516824E+00    6.8494873023246532E+00    2.4421334739907508E+00
Au    8.9059391985202598E+00    6.8497673052636099E+00    2.5025640592810157E+00
Au    1.1862163573702444E+01    6.8494873026540573E+00    2.4421334746101846E+00
Au    1.4831191326483129E+01    6.8473777343852698E+00    2.4047967012222622E+00
Au    1.4926313091780281E+00    9.4261196170611434E+00    2.4067215028009858E+00
Au    4.4710665754656498E+00    9.4173676759682738E+00    2.4128273393985711E+00
Au    7.4297822974914567E+00    9.4182117593140564E+00    2.4441005291112541E+00
Au    1.0382096104019018E+01    9.4182117583771117E+00    2.4441005285106283E+00
Au    1.3340811824999358E+01    9.4173676775192252E+00    2.4128273399215887E+00
Au    1.6319247091217644E+01    9.4261196187834013E+00    2.4067215032271094E+00
Au    2.7127476956898053E-09    1.1994886679249184E+01    2.3977340176170996E+00
Au    2.9759562788575211E+00    1.1997418526004909E+01    2.4054038485302991E+00
Au    5.9452976492739928E+00    1.1996237370908824E+01    2.4089555413641506E+00
Au    8.9059392023813668E+00    1.1970519130236434E+01    2.4447511858092295E+00
Au    1.1866580752551757E+01    1.1996237372154882E+01    2.4089555415133748E+00
Au    1.4835922123438932E+01    1.1997418527814141E+01    2.4054038476869417E+00
Au    1.4887183519526848E+00    1.4573516652020817E+01    2.4002620792727449E+00
Au    4.4612213269487135E+00    1.4574049765255719E+01    2.4041577430898844E+00
Au    7.4251312967270655E+00    1.4562463937932970E+01    2.4089432010580589E+00
Au    1.0386747106647588E+01    1.4562463937915446E+01    2.4089432022102013E+00
Au    1.3350657075273277E+01    1.4574049766643379E+01    2.4041577426993825E+00
Au    1.6323160050100757E+01    1.4573516652607593E+01    2.4002620809579893E+00
Au    3.2370488241028157E-09   -1.7695590492788676E-03    4.8380575756425293E+00
Au    2.9545099180915315E+00   -4.2204321411751042E-03    4.8459420466836933E+00
Au    5.9215305987939972E+00   -1.5354949401565692E-02    4.8600009395386623E+00
Au    8.9059392022638839E+00   -1.9628467940550572E-02    4.8601775019922471E+00
Au    1.1890347805145508E+01   -1.5354948385137375E-02    4.8600009413510143E+00
Au    1.4857368483149870E+01   -4.2204303325138826E-03    4.8459420464147653E+00
Au    1.4763418315622807E+00    2.5616419697934942E+00    4.8502089872338594E+00
Au    4.4247289291203806E+00    2.5356633832744619E+00    4.8604742339738740E+00
Au    7.3822314882762710E+00    2.4956951298293504E+00    4.8696042202286343E+00
Au    1.0429646913632855E+01    2.4956951315026084E+00    4.8696042192009630E+00
Au    1.3387149472259972E+01    2.5356633864908127E+00    4.8604742324367294E+00
Au    1.6335536570432186E+01    2.5616419707673090E+00    4.8502089851933343E+00
Au    2.4311956416253851E-09    5.1356694685154505E+00    4.8447011998316789E+00
Au    2.9285554773275688E+00    5.1246364945690148E+00    4.8567543147631778E+00
Au    5.8350919319053371E+00    5.0804138221136732E+00    4.9574916118905490E+00
Au    8.9059391979574638E+00    4.9446540956433749E+00    4.8655012045152928E+00
Au    1.1976786469529511E+01    5.0804138185428434E+00    4.9574916045871396E+00
Au    1.4883322920999728E+01    5.1246364957071950E+00    4.8567543118515157E+00
Au    1.4644344815552293E+00    7.7156458327128306E+00    4.8494669242620994E+00
Au    4.3705996011962638E+00    7.7122567508874909E+00    4.8668867580520399E+00
Au    7.2566161429325824E+00    7.8124934718574046E+00    4.8659193644128820E+00
Au    1.0555262256133224E+01    7.8124934713805994E+00    4.8659193653251860E+00
Au    1.3441278800314434E+01    7.7122567527670762E+00    4.8668867561102722E+00
Au    1.6347443920846082E+01    7.7156458305796427E+00    4.8494669214965045E+00
Au    4.1334383621322436E-09    1.0289408513456332E+01    4.8369886669712896E+00
Au    2.9411523677883795E+00    1.0299040903418407E+01    4.8461980431859697E+00
Au    5.8841997410869320E+00    1.0357832786941909E+01    4.8636732225425900E+00
Au    8.9059392021138919E+00    1.0379617329768204E+01    4.9726281784229034E+00
Au    1.1927678663588578E+01    1.0357832787053615E+01    4.8636732249914703E+00
Au    1.4870726033032597E+01    1.0299040905487226E+01    4.8461980430765070E+00
Au    1.4794644993477486E+00    1.2864776466620700E+01    4.8359088239120966E+00
Au    4.4312148874840505E+00    1.2878666357309394E+01    4.8577365203374274E+00
Au    7.4100197817002371E+00    1.2881671100156968E+01    4.8642698184337174E+00
Au    1.0401858624578704E+01    1.2881671101512437E+01    4.8642698191260321E+00
Au    1.3380663516419220E+01    1.2878666359097666E+01    4.8577365240383719E+00
Au    1.6332413904617898E+01    1.2864776467177379E+01    4.8359088249041635E+00
Au    7.4148756545241357E+00    5.9989794033872501E+00    7.0376413290013522E+00
Au    1.0397002746666304E+01    5.9989794039207789E+00    7.0376413274886298E+00
Au    8.9059392059517375E+00    8.5257153586255594E+00    7.0692327182832075E+00
Au    8.9059391981370535E+00    6.7518335335416273E+00    9.2370708828747770E+00
Au    8.9059385334761938E+00    6.2192443544230649E+00    1.1801630448099598E+01
Au    8.9059410215697721E+00    7.5863645101800765E+00    1.4049971757945828E+01
Au    8.9059369040926573E+00    7.1097276631494104E+00    1.6651904667087702E+01
Au    8.9059406548122304E+00    6.0183900346439030E+00    1.9047349540118073E+01
Au    8.9059388250023783E+00    7.3451299600416959E+00    2.1307869056831560E+01
Au    8.9059391964205652E+00    6.9276180250282327E+00    2.3897677649971214E+01
Au    8.9059392043546399E+00    5.1740904237291092E+00    2.6080090740799445E+01
Au    7.4269556410068551E+00    7.7031592522476648E+00    2.6097379438787502E+01
Au    1.0384922770546344E+01    7.7031592594040754E+00    2.6097379444498348E+01
Au    2.0330016698544345E-09    1.7106449292327837E+00    2.8302659102962824E+01
Au    2.9546624751546844E+00    1.7114130679128918E+00    2.8291591957387336E+01
Au    5.9091572837991277E+00    1.6805499730341020E+00    2.8283600353277301E+01
Au    8.9059392016273478E+00    1.6719592236215202E+00    2.8259402901383361E+01
Au    1.1902721118405728E+01    1.6805499749347927E+00    2.8283600357461150E+01
Au    1.4857215927477609E+01    1.7114130664996134E+00    2.8291591957393020E+01
Au    1.4765680301371387E+00    4.2788437844811700E+00    2.8295969610826329E+01
Au    4.4170949483005097E+00    4.2665441071802279E+00    2.8290143199586428E+01
Au    7.3720638992061751E+00    4.1814706235463071E+00    2.8208757691393942E+01
Au    1.0439814495646134E+01    4.1814706232154455E+00    2.8208757689828477E+01
Au    1.3394783455186603E+01    4.2665441030115243E+00    2.8290143201053414E+01
Au    1.6335310372334089E+01    4.2788437862362061E+00    2.8295969613754803E+01
Au    1.3268430697489231E-09    6.8619284984668800E+00    2.8290282049349276E+01
Au    2.9214737558985102E+00    6.8595846878565636E+00    2.8286504971204376E+01
Au    5.8168131995912393E+00    6.8718050382419298E+00    2.8226067192654650E+01
Au    8.9059392014744621E+00    6.8587375293728323E+00    2.8425496441887290E+01
Au    1.1995065204798697E+01    6.8718050359130709E+00    2.8226067200193871E+01
Au    1.4890404645883420E+01    6.8595846913921763E+00    2.8286504970281957E+01
Au    1.4690567684003280E+00    9.4412802046275281E+00    2.8289275649390838E+01
Au    4.4055292439676617E+00    9.4553177141353064E+00    2.8259558554674001E+01
Au    7.3456545415905303E+00    9.5241809260400334E+00    2.8223063146482144E+01
Au    1.0466223860696193E+01    9.5241809319534241E+00    2.8223063150891381E+01
Au    1.3406349152935636E+01    9.4553177121672398E+00    2.8259558556124141E+01
Au    1.6342821631305149E+01    9.4412802096121702E+00    2.8289275649566004E+01
Au    4.6561777697079685E-10    1.2006689371975327E+01    2.8298160779962348E+01
Au    2.9584309651861873E+00    1.2013449079366019E+01    2.8291188131650184E+01
Au    5.9130365994784482E+00    1.2044383899598721E+01    2.8283404355061514E+01
Au    8.9059391966660009E+00    1.2028201107188286E+01    2.8284252139977703E+01
Au    1.1898841800163341E+01    1.2044383903489758E+01    2.8283404358607907E+01
Au    1.4853447434415019E+01    1.2013449077080718E+01    2.8291188133795234E+01
Au    1.4813201194419576E+00    1.4568577726353741E+01    2.8303649794937346E+01
Au    4.4386114035942148E+00    1.4574613891018508E+01    2.8288893384047793E+01
Au    7.4218226444366433E+00    1.4571472774486944E+01    2.8281231017626428E+01
Au    1.0390055753101482E+01    1.4571472774523890E+01    2.8281231020568143E+01
Au    1.3373266995967681E+01    1.4574613892841811E+01    2.8288893387296401E+01
Au    1.6330558278613260E+01    1.4568577728926616E+01    2.8303649795980181E+01
Au    2.2180133904388949E-09    5.3236988373468828E-04    3.0741026283933810E+01
Au    2.9726653231553839E+00    9.9149000410607809E-05    3.0735998175407843E+01
Au    5.9440694278223543E+00    2.3474773467339815E-03    3.0735118565747388E+01
Au    8.9059391981276956E+00    1.2183317608635735E-02    3.0726502880612141E+01
Au    1.1867808969893561E+01    2.3474786169653352E-03    3.0735118564600434E+01
Au    1.4839213077446633E+01    9.9147487699463731E-05    3.0735998178048664E+01
Au    1.4880907741201770E+00    2.5727913117384151E+00    3.0737106412661110E+01
Au    4.4645683029820766E+00    2.5770744526282581E+00    3.0737493163772285E+01
Au    7.4175329720566676E+00    2.5821111892416435E+00    3.0714216099744082E+01
Au    1.0394345428335436E+01    2.5821111899674269E+00    3.0714216098158804E+01
Au    1.3347310099985611E+01    2.5770744540895123E+00    3.0737493165305359E+01
Au    1.6323787627014070E+01    2.5727913145464676E+00    3.0737106412492906E+01
Au    2.6165768546967939E-09    5.1463278219950759E+00    3.0731769142508753E+01
Au    2.9815571135398398E+00    5.1458921257300876E+00    3.0737988658660775E+01
Au    5.9481259954940295E+00    5.1447353840636163E+00    3.0684125631143491E+01
Au    8.9059392003347391E+00    5.1317905470538401E+00    3.0715666692355846E+01
Au    1.1863752405898120E+01    5.1447353845076016E+00    3.0684125633137224E+01
Au    1.4830321287029085E+01    5.1458921247250498E+00    3.0737988658656960E+01
Au    1.4894714065495556E+00    7.7195396595878725E+00    3.0737178091097235E+01
Au    4.4616628715628615E+00    7.7073135745987029E+00    3.0720862493065443E+01
Au    7.4150548577178235E+00    7.7166694253633157E+00    3.0720366179680379E+01
Au    1.0396823541457605E+01    7.7166694256764119E+00    3.0720366179106161E+01
Au    1.3350215527657721E+01    7.7073135738222609E+00    3.0720862493088362E+01
Au    1.6322406995281398E+01    7.7195396592850027E+00    3.0737178092118953E+01
Au    2.3368105516220719E-09    1.0286756025677157E+01    3.0734990169246746E+01
Au    2.9873594610221761E+00    1.0277125513886503E+01    3.0730677036804483E+01
Au    5.9470025770541950E+00    1.0286664599599570E+01    3.0720566534882067E+01
Au    8.9059391985165206E+00    1.0271921118766176E+01    3.0684861337141449E+01
Au    1.1864875822483667E+01    1.0286664603038361E+01    3.0720566534951882E+01
Au    1.4824518937263898E+01    1.0277125514555241E+01    3.0730677040111395E+01
Au    1.4868384175773659E+00    1.2854379039381854E+01    3.0740146785536073E+01
Au    4.4566584102564777E+00    1.2852832639072949E+01    3.0735667066686286E+01
Au    7.4265642804290382E+00    1.2845718898630718E+01    3.0734162891998068E+01
Au    1.0385314116777083E+01    1.2845718897160994E+01    3.0734162891735991E+01
Au    1.3355219988475088E+01    1.2852832640851181E+01    3.0735667069009235E+01
Au    1.6325039981431157E+01    1.2854379040749448E+01    3.0740146784663423E+01
     &END COORD
     &KIND Au
       BASIS_SET TZVP-MOLOPT-SR-GTH-q11
       ELEMENT Au
       POTENTIAL GTH-PBE-q11
       &POTENTIAL
1 0 10
0.5900000000000000E+00 1  0.1051717881000000E+02
3
0.5438473300000000E+00 2  0.5786811030000000E+01 -0.2250679660000000E+01
0.2905614950000000E+01
0.6091729800000000E+00 2  0.4284048730000000E+01 -0.4071285200000000E+01
0.4817209620000000E+01
0.4373092200000000E+00 2 -0.7403281240000000E+01  0.3010193070000000E+01
-0.3413238110000000E+01
       &END POTENTIAL
     &END KIND
     &TOPOLOGY
       COORD_FILE_NAME junction_65.xyz
       COORD_FILE_FORMAT  XYZ
       NUMBER_OF_ATOMS  193
       MULTIPLE_UNIT_CELL  1 1 1
     &END TOPOLOGY
   &END SUBSYS
   &PRINT
     &TOTAL_NUMBERS  ON
     &END TOTAL_NUMBERS
   &END PRINT
 &END FORCE_EVAL
