 # Version information for this restart file 
 # current date 2022-05-08 02:47:47.504
 # current working dir /rds/general/user/jj1921/home/junction/ortho/cell_65
 # Program compiled at                              Thu 12 Jul 13:52:12 BST 2018
 # Program compiled on                                      build-2.hpc.ic.ac.uk
 # Program compiled for                                       Linux-x86-64-intel
 # Source code revision number                                         svn:18464
 &GLOBAL
   PRINT_LEVEL  MEDIUM
   PROJECT_NAME Au_junction
   RUN_TYPE  CELL_OPT
 &END GLOBAL
 &MOTION
   &CELL_OPT
     OPTIMIZER  BFGS
     STEP_START_VAL  181
     TYPE  DIRECT_CELL_OPT
     KEEP_ANGLES  T
     KEEP_SYMMETRY  T
     CONSTRAINT  XY
   &END CELL_OPT
   &CONSTRAINT
     &FIXED_ATOMS
       COMPONENTS_TO_FIX  XYZ
       LIST  1..36
     &END FIXED_ATOMS
   &END CONSTRAINT
   &PRINT
     &TRAJECTORY  SILENT
       &EACH
         CELL_OPT  1
       &END EACH
     &END TRAJECTORY
   &END PRINT
 &END MOTION
 &FORCE_EVAL
   METHOD  QS
   STRESS_TENSOR  ANALYTICAL
   &DFT
     BASIS_SET_FILE_NAME /rds/general/user/jj1921/home/BASIS_COM_MOLOPT_GTH
     POTENTIAL_FILE_NAME /rds/general/user/jj1921/home/GTH_POTENTIALS
     &SCF
       MAX_SCF  500
       EPS_SCF     9.9999999999999995E-08
       CHOLESKY  INVERSE
       SCF_GUESS  ATOMIC
       ADDED_MOS  20
       &DIAGONALIZATION  T
         ALGORITHM  STANDARD
       &END DIAGONALIZATION
       &SMEAR  T
         METHOD  FERMI_DIRAC
         ELECTRONIC_TEMPERATURE     3.0000000000000000E+02
       &END SMEAR
       &MIXING  T
         METHOD  BROYDEN_MIXING
         ALPHA     4.0000000000000002E-01
         BETA     5.0000000000000000E-01
         NBUFFER  8
       &END MIXING
     &END SCF
     &QS
       EPS_DEFAULT     1.0000000000000000E-14
       METHOD  GPW
     &END QS
     &MGRID
       NGRIDS  4
       CUTOFF     5.0000000000000000E+02
       REL_CUTOFF     4.0000000000000000E+01
     &END MGRID
     &XC
       DENSITY_CUTOFF     1.0000000000000000E-10
       GRADIENT_CUTOFF     1.0000000000000000E-10
       TAU_CUTOFF     1.0000000000000000E-10
       &XC_FUNCTIONAL  NO_SHORTCUT
         &PBE  T
         &END PBE
       &END XC_FUNCTIONAL
     &END XC
     &KPOINTS
       SCHEME MONKHORST-PACK 4 4 1
       FULL_GRID  T
     &END KPOINTS
   &END DFT
   &SUBSYS
     &CELL
       A     1.7811878396732908E+01    0.0000000000000000E+00    0.0000000000000000E+00
       B     0.0000000000000000E+00    1.5425539180689926E+01    0.0000000000000000E+00
       C     0.0000000000000000E+00    0.0000000000000000E+00    3.2279083192365874E+01
       PERIODIC  XYZ
       MULTIPLE_UNIT_CELL  1 1 1
       SYMMETRY  ORTHORHOMBIC
     &END CELL
     &COORD
Au    1.4843231999999993E+00    8.5697440000000025E-01    0.0000000000000000E+00
Au    4.4529695999999976E+00    8.5697440000000025E-01    0.0000000000000000E+00
Au    7.4216159999999967E+00    8.5697440000000025E-01    0.0000000000000000E+00
Au    1.0390262400000001E+01    8.5697440000000025E-01    0.0000000000000000E+00
Au    1.3358908799999995E+01    8.5697440000000025E-01    0.0000000000000000E+00
Au    1.6327555199999992E+01    8.5697440000000025E-01    0.0000000000000000E+00
Au    0.0000000000000000E+00    3.4278976000000010E+00    0.0000000000000000E+00
Au    2.9686463999999986E+00    3.4278976000000010E+00    0.0000000000000000E+00
Au    5.9372927999999972E+00    3.4278976000000010E+00    0.0000000000000000E+00
Au    8.9059391999999953E+00    3.4278976000000010E+00    0.0000000000000000E+00
Au    1.1874585599999994E+01    3.4278976000000010E+00    0.0000000000000000E+00
Au    1.4843231999999993E+01    3.4278976000000010E+00    0.0000000000000000E+00
Au    1.4843231999999993E+00    5.9988207899999999E+00    0.0000000000000000E+00
Au    4.4529695999999976E+00    5.9988207899999999E+00    0.0000000000000000E+00
Au    7.4216159999999967E+00    5.9988207899999999E+00    0.0000000000000000E+00
Au    1.0390262400000001E+01    5.9988207899999999E+00    0.0000000000000000E+00
Au    1.3358908799999995E+01    5.9988207899999999E+00    0.0000000000000000E+00
Au    1.6327555199999992E+01    5.9988207899999999E+00    0.0000000000000000E+00
Au    0.0000000000000000E+00    8.5697439900000028E+00    0.0000000000000000E+00
Au    2.9686463999999986E+00    8.5697439900000028E+00    0.0000000000000000E+00
Au    5.9372927999999972E+00    8.5697439900000028E+00    0.0000000000000000E+00
Au    8.9059391999999953E+00    8.5697439900000028E+00    0.0000000000000000E+00
Au    1.1874585599999994E+01    8.5697439900000028E+00    0.0000000000000000E+00
Au    1.4843231999999993E+01    8.5697439900000028E+00    0.0000000000000000E+00
Au    1.4843231999999993E+00    1.1140667190000002E+01    0.0000000000000000E+00
Au    4.4529695999999976E+00    1.1140667190000002E+01    0.0000000000000000E+00
Au    7.4216159999999967E+00    1.1140667190000002E+01    0.0000000000000000E+00
Au    1.0390262400000001E+01    1.1140667190000002E+01    0.0000000000000000E+00
Au    1.3358908799999995E+01    1.1140667190000002E+01    0.0000000000000000E+00
Au    1.6327555199999992E+01    1.1140667190000002E+01    0.0000000000000000E+00
Au    0.0000000000000000E+00    1.3711590380000011E+01    0.0000000000000000E+00
Au    2.9686463999999986E+00    1.3711590380000011E+01    0.0000000000000000E+00
Au    5.9372927999999972E+00    1.3711590380000011E+01    0.0000000000000000E+00
Au    8.9059391999999953E+00    1.3711590380000011E+01    0.0000000000000000E+00
Au    1.1874585599999994E+01    1.3711590380000011E+01    0.0000000000000000E+00
Au    1.4843231999999993E+01    1.3711590380000011E+01    0.0000000000000000E+00
Au    5.3857226689810300E-07    1.7062765489657685E+00    2.4116306621889794E+00
Au    2.9549211295096054E+00    1.7072483663215399E+00    2.4079996403471307E+00
Au    5.9228623138817946E+00    1.7102002583865337E+00    2.4071399352708731E+00
Au    8.9059394741572824E+00    1.7277258449619408E+00    2.4184017089096321E+00
Au    1.1889016972873094E+01    1.7101996814772458E+00    2.4071394406436650E+00
Au    1.4856958111961307E+01    1.7072478809708018E+00    2.4080002365163500E+00
Au    1.4769469853396118E+00    4.2757773403059200E+00    2.4067495112589095E+00
Au    4.4456173524042768E+00    4.2801842894947884E+00    2.4285817014693438E+00
Au    7.4068625304038864E+00    4.2853577215631544E+00    2.4183369606264509E+00
Au    1.0405016982102799E+01    4.2853584817706833E+00    2.4183397043157346E+00
Au    1.3366261647681787E+01    4.2801841690034310E+00    2.4285804356915812E+00
Au    1.6334933369381886E+01    4.2757775170741557E+00    2.4067498444221336E+00
Au    9.8631546092539213E-07    6.8492922702733274E+00    2.4058757655537795E+00
Au    2.9602764396181449E+00    6.8473849087580296E+00    2.4075459871021336E+00
Au    5.9298955183504578E+00    6.8443882398864488E+00    2.4215408714659836E+00
Au    8.9059395423054095E+00    6.8569798671085191E+00    2.4805725114182113E+00
Au    1.1881982837916196E+01    6.8443895474894862E+00    2.4215447640501857E+00
Au    1.4851603538816056E+01    6.8473840743770937E+00    2.4075457978386852E+00
Au    1.4888466014313881E+00    9.4211483061838148E+00    2.4098837791644132E+00
Au    4.4600902536656939E+00    9.4210619648190512E+00    2.4143008872692220E+00
Au    7.4278326806897974E+00    9.4353699435940861E+00    2.4257359944220749E+00
Au    1.0384047990597892E+01    9.4353685186871150E+00    2.4257375448535914E+00
Au    1.3351789125789809E+01    9.4210626699113220E+00    2.4143025618478151E+00
Au    1.6323032062086231E+01    9.4211484272237946E+00    2.4098828838868629E+00
Au   -2.1467987722405527E-07    1.1987908007726052E+01    2.4125418325320185E+00
Au    2.9698389686569771E+00    1.1993830176457223E+01    2.4088516415359127E+00
Au    5.9372003895420118E+00    1.2007086286996103E+01    2.4063078179485502E+00
Au    8.9059399307805105E+00    1.1995316172811156E+01    2.4345989134306634E+00
Au    1.1874678481597687E+01    1.2007086716769154E+01    2.4063079055522212E+00
Au    1.4842039998816306E+01    1.1993830960156975E+01    2.4088505365085355E+00
Au    1.4797717427326986E+00    1.4560437279479791E+01    2.4105045133148848E+00
Au    4.4452870796106785E+00    1.4569818626520290E+01    2.4074522933460281E+00
Au    7.4220611734260444E+00    1.4578814473525338E+01    2.4034117877809686E+00
Au    1.0389816965923911E+01    1.4578815108171362E+01    2.4034117195194797E+00
Au    1.3366592361608555E+01    1.4569818710219302E+01    2.4074516390683107E+00
Au    1.6332107074803293E+01    1.4560437248129684E+01    2.4105037611091724E+00
Au    7.9663781790793947E-07   -1.3821320092701489E-02    4.8677394443716899E+00
Au    2.9401506053092121E+00   -1.7078073809704140E-02    4.8720105494182544E+00
Au    5.9017146375044760E+00   -2.4919501324811834E-02    4.8680303431352927E+00
Au    8.9059395911289148E+00   -9.6314288267450674E-03    4.8572811149226283E+00
Au    1.1910165297297779E+01   -2.4919242807953788E-02    4.8680294007355762E+00
Au    1.4871728765413490E+01   -1.7077719420519676E-02    4.8720115745588375E+00
Au    1.4611980374666396E+00    2.5508538295654981E+00    4.8745700431941339E+00
Au    4.3922329414579915E+00    2.5168176703092247E+00    4.8641291984699144E+00
Au    7.3591132740538674E+00    2.4756943420497386E+00    4.8564947803469742E+00
Au    1.0452766980541746E+01    2.4756947815710006E+00    4.8564949698708446E+00
Au    1.3419645729423014E+01    2.5168194501964738E+00    4.8641301558827781E+00
Au    1.6350681970775668E+01    2.5508535446862095E+00    4.8745683950660039E+00
Au    1.4629288984662285E-06    5.1328740435393723E+00    4.8694550249611677E+00
Au    2.9034315865240257E+00    5.1232753536252194E+00    4.8645294001040034E+00
Au    5.8065241418968840E+00    5.0632913241984907E+00    4.9026882884287799E+00
Au    8.9059405794782176E+00    4.9195687654438292E+00    4.7838715768078419E+00
Au    1.2005352793244423E+01    5.0632918082670546E+00    4.9026940093816442E+00
Au    1.4908446868243015E+01    5.1232751193441004E+00    4.8645290524527249E+00
Au    1.4533602700097463E+00    7.7175065318003480E+00    4.8670635050570361E+00
Au    4.3429440745362760E+00    7.7182219074443701E+00    4.8578372357608135E+00
Au    7.2321467646473669E+00    7.8062795174806956E+00    4.7990629604797146E+00
Au    1.0579732806245822E+01    7.8062795163924639E+00    4.7990674321180755E+00
Au    1.3468939009897097E+01    7.7182230792989559E+00    4.8578375650987846E+00
Au    1.6358522387893235E+01    7.7175062595831987E+00    4.8670608708896150E+00
Au    6.9412115446092836E-07    1.0287613892847364E+01    4.8609673693717523E+00
Au    2.9389919869410122E+00    1.0301008378786456E+01    4.8593915989588066E+00
Au    5.8755652089525139E+00    1.0365724644821762E+01    4.8544781859004642E+00
Au    8.9059378772599480E+00    1.0406414840871474E+01    4.9228843186235949E+00
Au    1.1936318114779096E+01    1.0365727495642226E+01    4.8544785438964633E+00
Au    1.4872890031801797E+01    1.0301009998424334E+01    4.8593930319110843E+00
Au    1.4739138473465612E+00    1.2852339043976535E+01    4.8630411021107927E+00
Au    4.4212288136225313E+00    1.2874419542992836E+01    4.8675747884165821E+00
Au    7.4005583816632434E+00    1.2900792001852800E+01    4.8568934793991430E+00
Au    1.0411321368511102E+01    1.2900792134357571E+01    4.8568923740265468E+00
Au    1.3390652520644673E+01    1.2874422162424098E+01    4.8675749829079491E+00
Au    1.6337965163257472E+01    1.2852339801818932E+01    4.8630414052072783E+00
Au    7.4213822691277516E+00    5.9663204241810988E+00    6.9412088744021743E+00
Au    1.0390476246504408E+01    5.9663487989652904E+00    6.9412262332611903E+00
Au    8.9059491514926901E+00    8.5190208012104538E+00    6.9554522973111315E+00
Au    8.9058573815257223E+00    6.7547440140826245E+00    9.1135370168048713E+00
Au    8.9048869877422394E+00    6.5227207622761689E+00    1.1714649821808548E+01
Au    8.9079626694257907E+00    8.1874639608682465E+00    1.3738538137800511E+01
Au    8.9041335820018332E+00    7.2187274237780024E+00    1.6165579176138991E+01
Au    8.9075080077783824E+00    5.7702602698364576E+00    1.8337050807961781E+01
Au    8.9052712914877770E+00    7.2329600696744611E+00    2.0502617992600520E+01
Au    8.9059129374929480E+00    6.9029593156380677E+00    2.3102891607575220E+01
Au    8.9059423230652541E+00    5.1703775027691128E+00    2.5288455102725088E+01
Au    7.4353763075891752E+00    7.7171623619064498E+00    2.5283259564767459E+01
Au    1.0376506897806724E+01    7.7171551086485444E+00    2.5283268472054957E+01
Au   -4.8921182432851805E-07    1.7058528605292618E+00    2.7418686185966813E+01
Au    2.9446458555914248E+00    1.7054541455214518E+00    2.7413963505498899E+01
Au    5.8946712421350602E+00    1.6695359895804238E+00    2.7421336877527970E+01
Au    8.9059379637090768E+00    1.6661416500860307E+00    2.7406497350400812E+01
Au    1.1917206568313478E+01    1.6695343077938454E+00    2.7421336537542821E+01
Au    1.4867234882797764E+01    1.7054503030063446E+00    2.7413964109512449E+01
Au    1.4692219591758835E+00    4.2752977584027505E+00    2.7418539984457897E+01
Au    4.4046639784711559E+00    4.2603649727873680E+00    2.7428571869945671E+01
Au    7.3578265274270036E+00    4.1765900829145002E+00    2.7391482760775265E+01
Au    1.0454050154342061E+01    4.1765915026959108E+00    2.7391477617244053E+01
Au    1.3407217242785306E+01    4.2603590075873470E+00    2.7428568237063164E+01
Au    1.6342658255232291E+01    4.2752972338771080E+00    2.7418543931245832E+01
Au    1.3716351777313890E-06    6.8591527184510177E+00    2.7416410870855344E+01
Au    2.9122627664584635E+00    6.8538719158920109E+00    2.7418284100940301E+01
Au    5.8157862652146113E+00    6.8684219241295690E+00    2.7391595088624793E+01
Au    8.9059366082677620E+00    6.8703752384129242E+00    2.7599618479443730E+01
Au    1.1996095207138499E+01    6.8684130787975333E+00    2.7391600321437316E+01
Au    1.4899617996009143E+01    6.8538719276028051E+00    2.7418284859620812E+01
Au    1.4658677365938568E+00    9.4377787413864898E+00    2.7410828847324048E+01
Au    4.3981687950555992E+00    9.4611916065071107E+00    2.7398317741343334E+01
Au    7.3463542196694673E+00    9.5434522292471140E+00    2.7391775643800937E+01
Au    1.0465518869719652E+01    9.5434624356141011E+00    2.7391780850053912E+01
Au    1.3413705699516235E+01    9.4611908217334317E+00    2.7398321521768679E+01
Au    1.6346010160511089E+01    9.4377803320935811E+00    2.7410831383013701E+01
Au   -2.0553869493029180E-08    1.2003441743921485E+01    2.7412595022970923E+01
Au    2.9457995682406866E+00    1.2013026388920231E+01    2.7412904810582457E+01
Au    5.9001906919500762E+00    1.2057079372001983E+01    2.7421277020533378E+01
Au    8.9059358958228234E+00    1.2050618583937721E+01    2.7433033720295285E+01
Au    1.1911687701449447E+01    1.2057081039658772E+01    2.7421276518010004E+01
Au    1.4866078760536171E+01    1.2013026518460999E+01    2.7412904740201455E+01
Au    1.4742241247461196E+00    1.4566013310176139E+01    2.7415315259336719E+01
Au    4.4242996163126893E+00    1.4574693100614478E+01    2.7416649077310193E+01
Au    7.4098600785991513E+00    1.4575470459481624E+01    2.7421825166432566E+01
Au    1.0402017237149600E+01    1.4575469884070127E+01    2.7421826855073530E+01
Au    1.3387579121204064E+01    1.4574692470058396E+01    2.7416649539393610E+01
Au    1.6337653696528690E+01    1.4566014043031112E+01    2.7415313149794830E+01
Au   -4.9186738253924706E-07    1.4731412060819701E-03    2.9866833270266127E+01
Au    2.9635539038699381E+00    4.9617599404386519E-03    2.9869393372141751E+01
Au    5.9356285677405705E+00   -6.2575852095918772E-03    2.9875876778702956E+01
Au    8.9059392673237365E+00    4.3830019280555275E-03    2.9868116974872283E+01
Au    1.1876249410363096E+01   -6.2581679135305076E-03    2.9875877660073975E+01
Au    1.4848324344445803E+01    4.9603739106785357E-03    2.9869394450099659E+01
Au    1.4849959304293650E+00    2.5759708028832695E+00    2.9868073457701833E+01
Au    4.4510057206939821E+00    2.5694554679838726E+00    2.9870712067591604E+01
Au    7.4155193026708934E+00    2.5697200997909175E+00    2.9859063778316678E+01
Au    1.0396359380400138E+01    2.5697205969802810E+00    2.9859060231328925E+01
Au    1.3360872357487061E+01    2.5694543913590402E+00    2.9870711633995793E+01
Au    1.6326882627808811E+01    2.5759694218717746E+00    2.9868075031852186E+01
Au    7.8510136656915425E-07    5.1484371543030356E+00    2.9870471356681904E+01
Au    2.9681764761895337E+00    5.1457549466339803E+00    2.9870570762883947E+01
Au    5.9417649605967959E+00    5.1462778996506673E+00    2.9825965203311657E+01
Au    8.9059394599217789E+00    5.1214534235770683E+00    2.9868506402797482E+01
Au    1.1870113071381301E+01    5.1462742984081640E+00    2.9825963783892455E+01
Au    1.4843701017890343E+01    5.1457549116875656E+00    2.9870570921985749E+01
Au    1.4798630105365991E+00    7.7197281641079831E+00    2.9871741218244996E+01
Au    4.4463200800258207E+00    7.7119610273721149E+00    2.9859774552322321E+01
Au    7.4024817628177955E+00    7.7252687393942834E+00    2.9872858764656080E+01
Au    1.0409397445417667E+01    7.7252686530702839E+00    2.9872858193960713E+01
Au    1.3365557971701909E+01    7.7119609102710243E+00    2.9859773270209256E+01
Au    1.6332016122690511E+01    7.7197272575592653E+00    2.9871741292976282E+01
Au    4.8706103356641290E-07    1.0289069348276733E+01    2.9869190617787424E+01
Au    2.9719119915549270E+00    1.0282195433598327E+01    2.9862857226149529E+01
Au    5.9336065654601606E+00    1.0292239067522486E+01    2.9860349575782692E+01
Au    8.9059361025268373E+00    1.0277738930040137E+01    2.9827741331936348E+01
Au    1.1878271508168760E+01    1.0292238852325545E+01    2.9860349928392683E+01
Au    1.4839967590808683E+01    1.0282196507786059E+01    2.9862858686983554E+01
Au    1.4803359619045677E+00    1.2854902356996362E+01    2.9869244869714041E+01
Au    4.4419979582190425E+00    1.2858571759178092E+01    2.9872982508388180E+01
Au    7.4183094615582661E+00    1.2852639425809654E+01    2.9872483614326764E+01
Au    1.0393567797623184E+01    1.2852638150029454E+01    2.9872483408365134E+01
Au    1.3369879926433935E+01    1.2858571710069807E+01    2.9872983125610723E+01
Au    1.6331542572174246E+01    1.2854902013862613E+01    2.9869244933871684E+01
     &END COORD
     &KIND Au
       BASIS_SET TZVP-MOLOPT-SR-GTH-q11
       ELEMENT Au
       POTENTIAL GTH-PBE-q11
       &POTENTIAL
1 0 10
0.5900000000000000E+00 1  0.1051717881000000E+02
3
0.5438473300000000E+00 2  0.5786811030000000E+01 -0.2250679660000000E+01
0.2905614950000000E+01
0.6091729800000000E+00 2  0.4284048730000000E+01 -0.4071285200000000E+01
0.4817209620000000E+01
0.4373092200000000E+00 2 -0.7403281240000000E+01  0.3010193070000000E+01
-0.3413238110000000E+01
       &END POTENTIAL
     &END KIND
     &TOPOLOGY
       COORD_FILE_NAME junction_65.xyz
       COORD_FILE_FORMAT  XYZ
       NUMBER_OF_ATOMS  193
       MULTIPLE_UNIT_CELL  1 1 1
     &END TOPOLOGY
   &END SUBSYS
   &PRINT
     &TOTAL_NUMBERS  ON
     &END TOTAL_NUMBERS
   &END PRINT
 &END FORCE_EVAL
