 # Version information for this restart file 
 # current date 2022-05-01 06:14:58.737
 # current working dir /rds/general/user/jj1921/home/junction/ortho/cell_65
 # Program compiled at                              Thu 12 Jul 13:52:12 BST 2018
 # Program compiled on                                      build-2.hpc.ic.ac.uk
 # Program compiled for                                       Linux-x86-64-intel
 # Source code revision number                                         svn:18464
 &GLOBAL
   PRINT_LEVEL  MEDIUM
   PROJECT_NAME Au_junction
   RUN_TYPE  CELL_OPT
 &END GLOBAL
 &MOTION
   &CELL_OPT
     OPTIMIZER  BFGS
     STEP_START_VAL  62
     TYPE  DIRECT_CELL_OPT
     KEEP_ANGLES  T
     KEEP_SYMMETRY  T
     CONSTRAINT  XY
   &END CELL_OPT
   &CONSTRAINT
     &FIXED_ATOMS
       COMPONENTS_TO_FIX  XYZ
       LIST  1..36
     &END FIXED_ATOMS
   &END CONSTRAINT
   &PRINT
     &TRAJECTORY  SILENT
       &EACH
         CELL_OPT  1
       &END EACH
     &END TRAJECTORY
   &END PRINT
 &END MOTION
 &FORCE_EVAL
   METHOD  QS
   STRESS_TENSOR  ANALYTICAL
   &DFT
     BASIS_SET_FILE_NAME /rds/general/user/jj1921/home/BASIS_COM_MOLOPT_GTH
     POTENTIAL_FILE_NAME /rds/general/user/jj1921/home/GTH_POTENTIALS
     &SCF
       MAX_SCF  500
       EPS_SCF     9.9999999999999995E-08
       CHOLESKY  INVERSE
       SCF_GUESS  ATOMIC
       ADDED_MOS  20
       &DIAGONALIZATION  T
         ALGORITHM  STANDARD
       &END DIAGONALIZATION
       &SMEAR  T
         METHOD  FERMI_DIRAC
         ELECTRONIC_TEMPERATURE     3.0000000000000000E+02
       &END SMEAR
       &MIXING  T
         METHOD  BROYDEN_MIXING
         ALPHA     4.0000000000000002E-01
         BETA     5.0000000000000000E-01
         NBUFFER  8
       &END MIXING
     &END SCF
     &QS
       EPS_DEFAULT     1.0000000000000000E-14
       METHOD  GPW
     &END QS
     &MGRID
       NGRIDS  4
       CUTOFF     5.0000000000000000E+02
       REL_CUTOFF     4.0000000000000000E+01
     &END MGRID
     &XC
       DENSITY_CUTOFF     1.0000000000000000E-10
       GRADIENT_CUTOFF     1.0000000000000000E-10
       TAU_CUTOFF     1.0000000000000000E-10
       &XC_FUNCTIONAL  NO_SHORTCUT
         &PBE  T
         &END PBE
       &END XC_FUNCTIONAL
     &END XC
     &KPOINTS
       SCHEME MONKHORST-PACK 4 4 1
       FULL_GRID  T
     &END KPOINTS
   &END DFT
   &SUBSYS
     &CELL
       A     1.7811878396732901E+01    0.0000000000000000E+00    0.0000000000000000E+00
       B     0.0000000000000000E+00    1.5425539180689929E+01    0.0000000000000000E+00
       C     0.0000000000000000E+00    0.0000000000000000E+00    3.3879817168390694E+01
       PERIODIC  XYZ
       MULTIPLE_UNIT_CELL  1 1 1
       SYMMETRY  ORTHORHOMBIC
     &END CELL
     &COORD
Au    1.4843231999999995E+00    8.5697439999999980E-01    0.0000000000000000E+00
Au    4.4529695999999985E+00    8.5697439999999980E-01    0.0000000000000000E+00
Au    7.4216159999999975E+00    8.5697439999999980E-01    0.0000000000000000E+00
Au    1.0390262399999999E+01    8.5697439999999980E-01    0.0000000000000000E+00
Au    1.3358908799999998E+01    8.5697439999999980E-01    0.0000000000000000E+00
Au    1.6327555199999995E+01    8.5697439999999980E-01    0.0000000000000000E+00
Au    0.0000000000000000E+00    3.4278975999999992E+00    0.0000000000000000E+00
Au    2.9686463999999990E+00    3.4278975999999992E+00    0.0000000000000000E+00
Au    5.9372927999999980E+00    3.4278975999999992E+00    0.0000000000000000E+00
Au    8.9059391999999971E+00    3.4278975999999992E+00    0.0000000000000000E+00
Au    1.1874585599999996E+01    3.4278975999999992E+00    0.0000000000000000E+00
Au    1.4843231999999995E+01    3.4278975999999992E+00    0.0000000000000000E+00
Au    1.4843231999999995E+00    5.9988207899999981E+00    0.0000000000000000E+00
Au    4.4529695999999985E+00    5.9988207899999981E+00    0.0000000000000000E+00
Au    7.4216159999999975E+00    5.9988207899999981E+00    0.0000000000000000E+00
Au    1.0390262399999999E+01    5.9988207899999981E+00    0.0000000000000000E+00
Au    1.3358908799999998E+01    5.9988207899999981E+00    0.0000000000000000E+00
Au    1.6327555199999995E+01    5.9988207899999981E+00    0.0000000000000000E+00
Au    0.0000000000000000E+00    8.5697439899999974E+00    0.0000000000000000E+00
Au    2.9686463999999990E+00    8.5697439899999974E+00    0.0000000000000000E+00
Au    5.9372927999999980E+00    8.5697439899999974E+00    0.0000000000000000E+00
Au    8.9059391999999971E+00    8.5697439899999974E+00    0.0000000000000000E+00
Au    1.1874585599999996E+01    8.5697439899999974E+00    0.0000000000000000E+00
Au    1.4843231999999995E+01    8.5697439899999974E+00    0.0000000000000000E+00
Au    1.4843231999999995E+00    1.1140667189999997E+01    0.0000000000000000E+00
Au    4.4529695999999985E+00    1.1140667189999997E+01    0.0000000000000000E+00
Au    7.4216159999999975E+00    1.1140667189999997E+01    0.0000000000000000E+00
Au    1.0390262399999999E+01    1.1140667189999997E+01    0.0000000000000000E+00
Au    1.3358908799999998E+01    1.1140667189999997E+01    0.0000000000000000E+00
Au    1.6327555199999995E+01    1.1140667189999997E+01    0.0000000000000000E+00
Au    0.0000000000000000E+00    1.3711590380000001E+01    0.0000000000000000E+00
Au    2.9686463999999990E+00    1.3711590380000001E+01    0.0000000000000000E+00
Au    5.9372927999999980E+00    1.3711590380000001E+01    0.0000000000000000E+00
Au    8.9059391999999971E+00    1.3711590380000001E+01    0.0000000000000000E+00
Au    1.1874585599999996E+01    1.3711590380000001E+01    0.0000000000000000E+00
Au    1.4843231999999995E+01    1.3711590380000001E+01    0.0000000000000000E+00
Au    6.2078969120698343E-10    1.7035167187273541E+00    2.3978880354185477E+00
Au    2.9593572605444725E+00    1.7045532559778818E+00    2.3995586559566942E+00
Au    5.9186663841045801E+00    1.7128659878280288E+00    2.4009320577101545E+00
Au    8.9059392008265572E+00    1.7387875486972473E+00    2.4146018720927009E+00
Au    1.1893212016453061E+01    1.7128659879430954E+00    2.4009320584770655E+00
Au    1.4852521139336623E+01    1.7045532557091319E+00    2.3995586572923266E+00
Au    1.4829998080573941E+00    4.2698633994021291E+00    2.4001419234822983E+00
Au    4.4456228481093563E+00    4.2791796045789336E+00    2.4291664219040898E+00
Au    7.4051334840624197E+00    4.2839901126227335E+00    2.4137729879472483E+00
Au    1.0406744917034819E+01    4.2839901111032193E+00    2.4137729873402605E+00
Au    1.3366255554390735E+01    4.2791796042965569E+00    2.4291664231660328E+00
Au    1.6328878594098935E+01    4.2698634002527296E+00    2.4001419218355862E+00
Au    3.5869547061200680E-09    6.8468955209691593E+00    2.3987401668502306E+00
Au    2.9558978351927725E+00    6.8409122971790000E+00    2.4005663629809142E+00
Au    5.9210291873612357E+00    6.8396363506670763E+00    2.4107515597199245E+00
Au    8.9059392009499181E+00    6.8567242071603136E+00    2.4586645576661659E+00
Au    1.1890849212950828E+01    6.8396363521426444E+00    2.4107515592282622E+00
Au    1.4855980565618596E+01    6.8409122978957706E+00    2.4005663622244722E+00
Au    1.4868509635652236E+00    9.4174542045901806E+00    2.4039264285237314E+00
Au    4.4644824880044407E+00    9.4130785100454464E+00    2.4110012774611760E+00
Au    7.4241674935571176E+00    9.4465058755196214E+00    2.4069590412295532E+00
Au    1.0387710908584836E+01    9.4465058755825773E+00    2.4069590420192162E+00
Au    1.3347395913444181E+01    9.4130785111263791E+00    2.4110012757945607E+00
Au    1.6325027437797658E+01    9.4174542044589540E+00    2.4039264303794927E+00
Au    1.2188170031619893E-09    1.1981957536827952E+01    2.3995239813635845E+00
Au    2.9666422627902098E+00    1.1989231891195853E+01    2.3999948319411168E+00
Au    5.9335523090283466E+00    1.2009774459337152E+01    2.4016501513903679E+00
Au    8.9059392011688274E+00    1.2019241445113815E+01    2.4228827702241214E+00
Au    1.1878326092647955E+01    1.2009774460071061E+01    2.4016501513848461E+00
Au    1.4845236138617830E+01    1.1989231891984213E+01    2.3999948318461497E+00
Au    1.4801922188056076E+00    1.4556333713703772E+01    2.4012146349078987E+00
Au    4.4441330756653796E+00    1.4564658171903865E+01    2.3957793442349340E+00
Au    7.4190800807884880E+00    1.4585062514276050E+01    2.4019451152954634E+00
Au    1.0392798320726763E+01    1.4585062514565935E+01    2.4019451140435972E+00
Au    1.3367745326143766E+01    1.4564658172623851E+01    2.3957793438466508E+00
Au    1.6331686181142999E+01    1.4556333714446978E+01    2.4012146347874870E+00
Au    4.0590539939746138E-09   -2.8693325320540961E-02    4.8550877627231070E+00
Au    2.9309861252909579E+00   -2.4715068133795197E-02    4.8544825700217284E+00
Au    5.8863595241960356E+00   -1.5494679441257136E-02    4.8547391080734998E+00
Au    8.9059392006339522E+00    2.0056619558526637E-03    4.8438609532406796E+00
Au    1.1925518879520830E+01   -1.5494681314105103E-02    4.8547391081116178E+00
Au    1.4880892277742763E+01   -2.4715065797068309E-02    4.8544825728106931E+00
Au    1.4618918124850426E+00    2.5364090240506614E+00    4.8582894545984150E+00
Au    4.3906698541303832E+00    2.5225105376335248E+00    4.8566714898796937E+00
Au    7.3560504952231467E+00    2.4916902714233351E+00    4.8499249626269334E+00
Au    1.0455827910642260E+01    2.4916902699262771E+00    4.8499249632599257E+00
Au    1.3421208547929504E+01    2.5225105388216744E+00    4.8566714905233033E+00
Au    1.6349986590695615E+01    2.5364090237350929E+00    4.8582894548367603E+00
Au    1.8677490122074276E-09    5.1167823317144503E+00    4.8541416250084790E+00
Au    2.9081446185863591E+00    5.1108039739917652E+00    4.8571856506861248E+00
Au    5.8312983295984413E+00    5.0775922905221762E+00    4.9291001134712680E+00
Au    8.9059392025856905E+00    4.9375500545133235E+00    4.7923640223244224E+00
Au    1.1980580071904360E+01    5.0775922926150336E+00    4.9291001091713138E+00
Au    1.4903733784209194E+01    5.1108039738364726E+00    4.8571856464370571E+00
Au    1.4512327490049959E+00    7.7053652404480912E+00    4.8526790475791479E+00
Au    4.3471245732086414E+00    7.7024131394000790E+00    4.8509098206223058E+00
Au    7.2325658836790394E+00    7.8246862418012837E+00    4.7756861814843337E+00
Au    1.0579312517515037E+01    7.8246862436370348E+00    4.7756861821692560E+00
Au    1.3464753827754627E+01    7.7024131429277176E+00    4.8509098229762619E+00
Au    1.6360645652983440E+01    7.7053652368278271E+00    4.8526790477934520E+00
Au    4.5409711021724689E-09    1.0276228501960203E+01    4.8450792207156343E+00
Au    2.9376080345244993E+00    1.0290302745518673E+01    4.8446977378017770E+00
Au    5.8759793489025913E+00    1.0373518668314219E+01    4.8469173185987993E+00
Au    8.9059392019936681E+00    1.0421866461550506E+01    4.8936791960227799E+00
Au    1.1935899056113147E+01    1.0373518668297132E+01    4.8469173209840557E+00
Au    1.4874270368002376E+01    1.0290302747723965E+01    4.8446977388321972E+00
Au    1.4697109456904782E+00    1.2843243107605277E+01    4.8488828504151504E+00
Au    4.4078398605466642E+00    1.2872791890089164E+01    4.8525165913899704E+00
Au    7.3897992284965053E+00    1.2918266035170037E+01    4.8471607322310044E+00
Au    1.0422079172118433E+01    1.2918266036814870E+01    4.8471607315840988E+00
Au    1.3404038542193819E+01    1.2872791891037236E+01    4.8525165921266318E+00
Au    1.6342167457695005E+01    1.2843243107596699E+01    4.8488828520088818E+00
Au    7.4471944417994935E+00    6.0456687117098484E+00    6.9636749550351640E+00
Au    1.0364683963789172E+01    6.0456687118561669E+00    6.9636749552627242E+00
Au    8.9059392009779881E+00    8.5601847675720997E+00    6.9467456811771493E+00
Au    8.9059391987715113E+00    6.8639680433279651E+00    9.1842866206155627E+00
Au    8.9059390831818366E+00    6.3797880928783730E+00    1.1826951933096487E+01
Au    8.9059394059634762E+00    7.3806414224498127E+00    1.4286250728063774E+01
Au    8.9059389353159073E+00    6.9551842505164378E+00    1.6916265093029242E+01
Au    8.9059393671397551E+00    6.2636040971579261E+00    1.9477660235400037E+01
Au    8.9059391635220582E+00    7.2811605809862003E+00    2.1934968558775324E+01
Au    8.9059392026568709E+00    6.8639419401359900E+00    2.4581123585641482E+01
Au    8.9059391934330563E+00    5.1700715303217866E+00    2.6862904506044771E+01
Au    7.4566824597259922E+00    7.6783096378526157E+00    2.6840886858496710E+01
Au    1.0355195941223331E+01    7.6783096332679772E+00    2.6840886861973011E+01
Au    6.8861317322534794E-10    1.7103818828394903E+00    2.9038480183497089E+01
Au    2.9395160079461489E+00    1.7084427278969760E+00    2.9031911666119548E+01
Au    5.8859002243673979E+00    1.6705556852530818E+00    2.9031595982513569E+01
Au    8.9059392042763736E+00    1.6658115505000084E+00    2.9013695810970660E+01
Au    1.1925978174335086E+01    1.6705556880126005E+00    2.9031595983889328E+01
Au    1.4872362391310723E+01    1.7084427267143190E+00    2.9031911668378026E+01
Au    1.4688816950613184E+00    4.2801027803720606E+00    2.9035806438715380E+01
Au    4.4040727224322076E+00    4.2637737856365820E+00    2.9035715078242507E+01
Au    7.3744698185643660E+00    4.1851823725449036E+00    2.8984908338833343E+01
Au    1.0437408568282740E+01    4.1851823764373091E+00    2.8984908342727710E+01
Au    1.3407805677019189E+01    4.2637737803388571E+00    2.9035715075977897E+01
Au    1.6342996702883493E+01    4.2801027836449226E+00    2.9035806436758424E+01
Au    3.7742058153835274E-10    6.8658571390619185E+00    2.9036302256616676E+01
Au    2.9132896391666487E+00    6.8602373169565629E+00    2.9029476763568880E+01
Au    5.8272113769090392E+00    6.8844479777283674E+00    2.8968990616744410E+01
Au    8.9059392001430755E+00    6.8643658455328724E+00    2.9198984240891964E+01
Au    1.1984667022603462E+01    6.8844479727984389E+00    2.8968990620709590E+01
Au    1.4898588758516558E+01    6.8602373198221951E+00    2.9029476762758812E+01
Au    1.4649380921817594E+00    9.4496544002296510E+00    2.9030988674280334E+01
Au    4.3935390011091471E+00    9.4655565036561171E+00    2.9004138214252741E+01
Au    7.3427318419769589E+00    9.5093468972781920E+00    2.8963338059773569E+01
Au    1.0469146570273523E+01    9.5093468989597341E+00    2.8963338055331889E+01
Au    1.3418339400035311E+01    9.4655564999947650E+00    2.9004138216409572E+01
Au    1.6346940311071897E+01    9.4496544052313780E+00    2.9030988675479225E+01
Au    1.3301876016962548E-09    1.2017031038051257E+01    2.9035505626858217E+01
Au    2.9427843020371021E+00    1.2016092380729047E+01    2.9029611923923589E+01
Au    5.9019509260765037E+00    1.2049526186371043E+01    2.9030656603470220E+01
Au    8.9059391990926446E+00    1.2037698801369444E+01    2.9037069752646197E+01
Au    1.1909927476543647E+01    1.2049526189315381E+01    2.9030656602980759E+01
Au    1.4869094099819970E+01    1.2016092378955623E+01    2.9029611925320634E+01
Au    1.4694009709504450E+00    1.4572156265598476E+01    2.9037896304985320E+01
Au    4.4157135022461107E+00    1.4570826779850792E+01    2.9035196185409017E+01
Au    7.4063365562772638E+00    1.4573348926490187E+01    2.9032760178114803E+01
Au    1.0405541847147656E+01    1.4573348923074482E+01    2.9032760177868841E+01
Au    1.3396164899337332E+01    1.4570826778770634E+01    2.9035196186686889E+01
Au    1.6342477428772714E+01    1.4572156269208826E+01    2.9037896306354074E+01
Au    3.1662257799160457E-09    5.4756729199946204E-03    3.1483717525196674E+01
Au    2.9652484044359126E+00    6.6172716200433900E-03    3.1481303641705388E+01
Au    5.9333719880559057E+00   -5.0925018200988041E-03    3.1479667559793025E+01
Au    8.9059392011647773E+00    7.5191427635782600E-03    3.1467623247875697E+01
Au    1.1878506412175476E+01   -5.0925014291614730E-03    3.1479667558745380E+01
Au    1.4846629996280978E+01    6.6172701208523565E-03    3.1481303641038505E+01
Au    1.4833665003399101E+00    2.5758473723841737E+00    3.1478835788534077E+01
Au    4.4565768129184971E+00    2.5767623236853661E+00    3.1481732260704973E+01
Au    7.4112103223457479E+00    2.5679325580225130E+00    3.1463285187728843E+01
Au    1.0400668078493162E+01    2.5679325584809671E+00    3.1463285188843358E+01
Au    1.3355301587695669E+01    2.5767623254887559E+00    3.1481732259593734E+01
Au    1.6328511896997512E+01    2.5758473748583386E+00    3.1478835787001643E+01
Au    1.1517907508663594E-09    5.1479204373641370E+00    3.1476939211559305E+01
Au    2.9713811060312811E+00    5.1482666035253803E+00    3.1480962944572141E+01
Au    5.9391632792303994E+00    5.1517028118838013E+00    3.1432272565331107E+01
Au    8.9059391983817431E+00    5.1276856859616906E+00    3.1478655236148327E+01
Au    1.1872715120426344E+01    5.1517028116568326E+00    3.1432272565031610E+01
Au    1.4840497291743853E+01    5.1482666041396214E+00    3.1480962948599480E+01
Au    1.4838079288049044E+00    7.7213044172445153E+00    3.1478976593896963E+01
Au    4.4440150871563686E+00    7.7128015053311376E+00    3.1461361582292430E+01
Au    7.4046255230161755E+00    7.7239390404240131E+00    3.1476824589384815E+01
Au    1.0407252875919690E+01    7.7239390408048845E+00    3.1476824588097440E+01
Au    1.3367863311670217E+01    7.7128015030833090E+00    3.1461361583215652E+01
Au    1.6328070471686857E+01    7.7213044168709546E+00    3.1478976589956275E+01
Au    1.9605794137976577E-09    1.0294239250463134E+01    3.1481414674352781E+01
Au    2.9767213298856117E+00    1.0281469859491381E+01    3.1474462581109425E+01
Au    5.9368620462050785E+00    1.0292416538749571E+01    3.1461371999349858E+01
Au    8.9059392006789224E+00    1.0272760249712345E+01    3.1424608155231390E+01
Au    1.1875016354855729E+01    1.0292416539565172E+01    3.1461371999864664E+01
Au    1.4835157069540355E+01    1.0281469858961051E+01    3.1474462579507527E+01
Au    1.4817812137855388E+00    1.2857669255844696E+01    3.1483149910801060E+01
Au    4.4455155690400288E+00    1.2853810588167951E+01    3.1480344811107283E+01
Au    7.4223772699237101E+00    1.2846462282021317E+01    3.1479492112264783E+01
Au    1.0389501129533938E+01    1.2846462280314155E+01    3.1479492112289289E+01
Au    1.3366362830654696E+01    1.2853810587325230E+01    3.1480344814167534E+01
Au    1.6330097186927773E+01    1.2857669256740810E+01    3.1483149910557795E+01
     &END COORD
     &KIND Au
       BASIS_SET TZVP-MOLOPT-SR-GTH-q11
       ELEMENT Au
       POTENTIAL GTH-PBE-q11
       &POTENTIAL
1 0 10
0.5900000000000000E+00 1  0.1051717881000000E+02
3
0.5438473300000000E+00 2  0.5786811030000000E+01 -0.2250679660000000E+01
0.2905614950000000E+01
0.6091729800000000E+00 2  0.4284048730000000E+01 -0.4071285200000000E+01
0.4817209620000000E+01
0.4373092200000000E+00 2 -0.7403281240000000E+01  0.3010193070000000E+01
-0.3413238110000000E+01
       &END POTENTIAL
     &END KIND
     &TOPOLOGY
       COORD_FILE_NAME junction_65.xyz
       COORD_FILE_FORMAT  XYZ
       NUMBER_OF_ATOMS  193
       MULTIPLE_UNIT_CELL  1 1 1
     &END TOPOLOGY
   &END SUBSYS
   &PRINT
     &TOTAL_NUMBERS  ON
     &END TOTAL_NUMBERS
   &END PRINT
 &END FORCE_EVAL
