 # Version information for this restart file 
 # current date 2022-05-07 02:34:09.157
 # current working dir /rds/general/user/jj1921/home/junction/ortho/cell_65
 # Program compiled at                              Thu 12 Jul 13:52:12 BST 2018
 # Program compiled on                                      build-2.hpc.ic.ac.uk
 # Program compiled for                                       Linux-x86-64-intel
 # Source code revision number                                         svn:18464
 &GLOBAL
   PRINT_LEVEL  MEDIUM
   PROJECT_NAME Au_junction
   RUN_TYPE  CELL_OPT
 &END GLOBAL
 &MOTION
   &CELL_OPT
     OPTIMIZER  BFGS
     STEP_START_VAL  171
     TYPE  DIRECT_CELL_OPT
     KEEP_ANGLES  T
     KEEP_SYMMETRY  T
     CONSTRAINT  XY
   &END CELL_OPT
   &CONSTRAINT
     &FIXED_ATOMS
       COMPONENTS_TO_FIX  XYZ
       LIST  1..36
     &END FIXED_ATOMS
   &END CONSTRAINT
   &PRINT
     &TRAJECTORY  SILENT
       &EACH
         CELL_OPT  1
       &END EACH
     &END TRAJECTORY
   &END PRINT
 &END MOTION
 &FORCE_EVAL
   METHOD  QS
   STRESS_TENSOR  ANALYTICAL
   &DFT
     BASIS_SET_FILE_NAME /rds/general/user/jj1921/home/BASIS_COM_MOLOPT_GTH
     POTENTIAL_FILE_NAME /rds/general/user/jj1921/home/GTH_POTENTIALS
     &SCF
       MAX_SCF  500
       EPS_SCF     9.9999999999999995E-08
       CHOLESKY  INVERSE
       SCF_GUESS  ATOMIC
       ADDED_MOS  20
       &DIAGONALIZATION  T
         ALGORITHM  STANDARD
       &END DIAGONALIZATION
       &SMEAR  T
         METHOD  FERMI_DIRAC
         ELECTRONIC_TEMPERATURE     3.0000000000000000E+02
       &END SMEAR
       &MIXING  T
         METHOD  BROYDEN_MIXING
         ALPHA     4.0000000000000002E-01
         BETA     5.0000000000000000E-01
         NBUFFER  8
       &END MIXING
     &END SCF
     &QS
       EPS_DEFAULT     1.0000000000000000E-14
       METHOD  GPW
     &END QS
     &MGRID
       NGRIDS  4
       CUTOFF     5.0000000000000000E+02
       REL_CUTOFF     4.0000000000000000E+01
     &END MGRID
     &XC
       DENSITY_CUTOFF     1.0000000000000000E-10
       GRADIENT_CUTOFF     1.0000000000000000E-10
       TAU_CUTOFF     1.0000000000000000E-10
       &XC_FUNCTIONAL  NO_SHORTCUT
         &PBE  T
         &END PBE
       &END XC_FUNCTIONAL
     &END XC
     &KPOINTS
       SCHEME MONKHORST-PACK 4 4 1
       FULL_GRID  T
     &END KPOINTS
   &END DFT
   &SUBSYS
     &CELL
       A     1.7811878396732908E+01    0.0000000000000000E+00    0.0000000000000000E+00
       B     0.0000000000000000E+00    1.5425539180689926E+01    0.0000000000000000E+00
       C     0.0000000000000000E+00    0.0000000000000000E+00    3.2292057719602838E+01
       PERIODIC  XYZ
       MULTIPLE_UNIT_CELL  1 1 1
       SYMMETRY  ORTHORHOMBIC
     &END CELL
     &COORD
Au    1.4843231999999993E+00    8.5697439999999980E-01    0.0000000000000000E+00
Au    4.4529695999999976E+00    8.5697439999999980E-01    0.0000000000000000E+00
Au    7.4216159999999967E+00    8.5697439999999980E-01    0.0000000000000000E+00
Au    1.0390262399999999E+01    8.5697439999999980E-01    0.0000000000000000E+00
Au    1.3358908799999995E+01    8.5697439999999980E-01    0.0000000000000000E+00
Au    1.6327555199999992E+01    8.5697439999999980E-01    0.0000000000000000E+00
Au    0.0000000000000000E+00    3.4278975999999992E+00    0.0000000000000000E+00
Au    2.9686463999999986E+00    3.4278975999999992E+00    0.0000000000000000E+00
Au    5.9372927999999972E+00    3.4278975999999992E+00    0.0000000000000000E+00
Au    8.9059391999999953E+00    3.4278975999999992E+00    0.0000000000000000E+00
Au    1.1874585599999994E+01    3.4278975999999992E+00    0.0000000000000000E+00
Au    1.4843231999999993E+01    3.4278975999999992E+00    0.0000000000000000E+00
Au    1.4843231999999993E+00    5.9988207899999981E+00    0.0000000000000000E+00
Au    4.4529695999999976E+00    5.9988207899999981E+00    0.0000000000000000E+00
Au    7.4216159999999967E+00    5.9988207899999981E+00    0.0000000000000000E+00
Au    1.0390262399999999E+01    5.9988207899999981E+00    0.0000000000000000E+00
Au    1.3358908799999995E+01    5.9988207899999981E+00    0.0000000000000000E+00
Au    1.6327555199999992E+01    5.9988207899999981E+00    0.0000000000000000E+00
Au    0.0000000000000000E+00    8.5697439900000010E+00    0.0000000000000000E+00
Au    2.9686463999999986E+00    8.5697439900000010E+00    0.0000000000000000E+00
Au    5.9372927999999972E+00    8.5697439900000010E+00    0.0000000000000000E+00
Au    8.9059391999999953E+00    8.5697439900000010E+00    0.0000000000000000E+00
Au    1.1874585599999994E+01    8.5697439900000010E+00    0.0000000000000000E+00
Au    1.4843231999999993E+01    8.5697439900000010E+00    0.0000000000000000E+00
Au    1.4843231999999993E+00    1.1140667189999997E+01    0.0000000000000000E+00
Au    4.4529695999999976E+00    1.1140667189999997E+01    0.0000000000000000E+00
Au    7.4216159999999967E+00    1.1140667189999997E+01    0.0000000000000000E+00
Au    1.0390262399999999E+01    1.1140667189999997E+01    0.0000000000000000E+00
Au    1.3358908799999995E+01    1.1140667189999997E+01    0.0000000000000000E+00
Au    1.6327555199999992E+01    1.1140667189999997E+01    0.0000000000000000E+00
Au    0.0000000000000000E+00    1.3711590380000004E+01    0.0000000000000000E+00
Au    2.9686463999999986E+00    1.3711590380000004E+01    0.0000000000000000E+00
Au    5.9372927999999972E+00    1.3711590380000004E+01    0.0000000000000000E+00
Au    8.9059391999999953E+00    1.3711590380000004E+01    0.0000000000000000E+00
Au    1.1874585599999994E+01    1.3711590380000004E+01    0.0000000000000000E+00
Au    1.4843231999999993E+01    1.3711590380000004E+01    0.0000000000000000E+00
Au    5.3116400857651019E-07    1.7091436548471204E+00    2.4128740485298534E+00
Au    2.9579725474413165E+00    1.7070400929079066E+00    2.4080884243492910E+00
Au    5.9183666424644308E+00    1.7100562865844173E+00    2.4052113599031721E+00
Au    8.9059394787854398E+00    1.7268303243019032E+00    2.4199030208729195E+00
Au    1.1893512614614854E+01    1.7100555069856267E+00    2.4052109130134811E+00
Au    1.4853906865405330E+01    1.7070392784455077E+00    2.4080888318425377E+00
Au    1.4781913069808783E+00    4.2771294847379142E+00    2.4079377493888039E+00
Au    4.4421621564678642E+00    4.2834633157933837E+00    2.4240328671314750E+00
Au    7.4019844035209932E+00    4.2817643209946157E+00    2.4139832750376948E+00
Au    1.0409894515741964E+01    4.2817646449457616E+00    2.4139852709894316E+00
Au    1.3369718747216753E+01    4.2834620635265965E+00    2.4240290197674432E+00
Au    1.6333689246924465E+01    4.2771295811253127E+00    2.4079379467655104E+00
Au    8.3931890073454486E-07    6.8556574211503687E+00    2.4100718127571277E+00
Au    2.9561055815466868E+00    6.8516255170245612E+00    2.4028612945160965E+00
Au    5.9277631964972208E+00    6.8456757248024767E+00    2.4188479342980540E+00
Au    8.9059393998030103E+00    6.8489519941697212E+00    2.4741417151502314E+00
Au    1.1884115419905330E+01    6.8456767699056940E+00    2.4188503965636228E+00
Au    1.4855774290330038E+01    6.8516250230162781E+00    2.4028610116098155E+00
Au    1.4885103977692407E+00    9.4283650594147126E+00    2.4104677354178108E+00
Au    4.4600847865409499E+00    9.4230235133802971E+00    2.4143337368570776E+00
Au    7.4278578658158496E+00    9.4305110466040940E+00    2.4262499316631772E+00
Au    1.0384022129702318E+01    9.4305104757472122E+00    2.4262504004315351E+00
Au    1.3351794449107244E+01    9.4230240707905413E+00    2.4143350505533125E+00
Au    1.6323368295167526E+01    9.4283651578207301E+00    2.4104671514084024E+00
Au   -5.8602989526782580E-08    1.1997525806253583E+01    2.4106936187039834E+00
Au    2.9695796056040051E+00    1.1995540248993102E+01    2.4098229698452300E+00
Au    5.9384430031828144E+00    1.2007898624480305E+01    2.4073167644548934E+00
Au    8.9059396732903373E+00    1.1995447258296032E+01    2.4345829014989047E+00
Au    1.1873435744732948E+01    1.2007898913156218E+01    2.4073168456836673E+00
Au    1.4842299264874530E+01    1.1995540790868047E+01    2.4098221398656503E+00
Au    1.4796844948406040E+00    1.4565108893949795E+01    2.4107073653523869E+00
Au    4.4458982392259170E+00    1.4565562193340606E+01    2.4082683313136704E+00
Au    7.4218002388572550E+00    1.4580389829218609E+01    2.4104959770948153E+00
Au    1.0390077915641841E+01    1.4580390168765865E+01    2.4104960500730321E+00
Au    1.3365981013851414E+01    1.4565562007975792E+01    2.4082678241875071E+00
Au    1.6332194373020343E+01    1.4565108735800829E+01    2.4107067500578458E+00
Au    6.2110473900338274E-07   -2.3240230374585642E-03    4.8732032890990027E+00
Au    2.9385773962519690E+00   -8.4999953521213666E-03    4.8660372412708597E+00
Au    5.8978995157905070E+00   -2.1527777443511444E-02    4.8664421448296560E+00
Au    8.9059394155149008E+00   -8.2513084045009420E-03    4.8589488833168275E+00
Au    1.1913980071041376E+01   -2.1528142291816561E-02    4.8664415406121675E+00
Au    1.4873302020172590E+01   -8.5002121580537368E-03    4.8660380571028865E+00
Au    1.4627920643335197E+00    2.5587421237515189E+00    4.8691332723261702E+00
Au    4.3947608588985450E+00    2.5252486650674859E+00    4.8678988949602218E+00
Au    7.3576564241691829E+00    2.4767153528890646E+00    4.8548020734393820E+00
Au    1.0454223465196248E+01    2.4767151667325833E+00    4.8548022117575256E+00
Au    1.3417119022920108E+01    2.5252477629480881E+00    4.8678997509854360E+00
Au    1.6349087997431784E+01    2.5587416987951634E+00    4.8691322600907974E+00
Au    1.4645249793001472E-06    5.1370949298873390E+00    4.8647729666075055E+00
Au    2.9013434427004166E+00    5.1279054590029105E+00    4.8670676530638994E+00
Au    5.8033312853771655E+00    5.0664104778125418E+00    4.8985683075571336E+00
Au    8.9059401398787337E+00    4.9170197858795159E+00    4.7729114468322980E+00
Au    1.2008551798952462E+01    5.0664068678700742E+00    4.8985636204546816E+00
Au    1.4910537163504008E+01    5.1279053584037335E+00    4.8670675075764116E+00
Au    1.4541181719887721E+00    7.7206119231063708E+00    4.8678971587242614E+00
Au    4.3416560358176097E+00    7.7147934305971457E+00    4.8535615893143964E+00
Au    7.2283402599719020E+00    7.8014509554844507E+00    4.8007205170944651E+00
Au    1.0583539091570254E+01    7.8014520107306904E+00    4.8007214450312699E+00
Au    1.3470225984980647E+01    7.7147942183975085E+00    4.8535619095225666E+00
Au    1.6357763511782988E+01    7.7206118124507359E+00    4.8678953591572158E+00
Au    5.5579493964631674E-07    1.0295364677530221E+01    4.8611461045447246E+00
Au    2.9399088588503588E+00    1.0300260205349138E+01    4.8579533120766287E+00
Au    5.8780029156868672E+00    1.0367266458174395E+01    4.8549512264988222E+00
Au    8.9059375714721867E+00    1.0391466493587110E+01    4.9205304631692455E+00
Au    1.1933879274362305E+01    1.0367268889954735E+01    4.8549515801675369E+00
Au    1.4871972314167866E+01    1.0300261289645157E+01    4.8579544046629355E+00
Au    1.4707201399416054E+00    1.2859664277437961E+01    4.8657532931723475E+00
Au    4.4180995320573588E+00    1.2874761707757420E+01    4.8700679935432412E+00
Au    7.4026357318688749E+00    1.2896780728732134E+01    4.8655840784204729E+00
Au    1.0409243398594640E+01    1.2896780536179032E+01    4.8655832348238199E+00
Au    1.3393781158639236E+01    1.2874763469899545E+01    4.8700682090135059E+00
Au    1.6341158745234793E+01    1.2859664658384320E+01    4.8657534026433460E+00
Au    7.4266523363562973E+00    5.9539911053355219E+00    6.9400418392653709E+00
Au    1.0385226878216615E+01    5.9540090857821486E+00    6.9400474445392719E+00
Au    8.9059504262405547E+00    8.4980346220482037E+00    6.9596215675482602E+00
Au    8.9058928378043074E+00    6.7271174986703670E+00    9.1272762262638896E+00
Au    8.9050794680584158E+00    6.4726035846346290E+00    1.1735045652915741E+01
Au    8.9075564838049281E+00    8.1620345092539885E+00    1.3739154797072970E+01
Au    8.9044399329895896E+00    7.2465487816542717E+00    1.6192777486226230E+01
Au    8.9071432498299767E+00    5.7860640702926318E+00    1.8351110027728954E+01
Au    8.9054594565297034E+00    7.2511892697961189E+00    2.0509051043437452E+01
Au    8.9059303627716417E+00    6.9039859757724926E+00    2.3114629225537943E+01
Au    8.9059410935847492E+00    5.1808793152581956E+00    2.5309721688241684E+01
Au    7.4387724331125025E+00    7.7168374624609530E+00    2.5298752268027595E+01
Au    1.0373113727473006E+01    7.7168352251523897E+00    2.5298763004067197E+01
Au   -4.7969611418726398E-07    1.7098589138926630E+00    2.7428645587296987E+01
Au    2.9421261228332463E+00    1.7082769073337560E+00    2.7428547541211874E+01
Au    5.8870315218424798E+00    1.6756399999698779E+00    2.7432716791493998E+01
Au    8.9059382123897564E+00    1.6694932075629521E+00    2.7421170139995628E+01
Au    1.1924846289489119E+01    1.6756388187213962E+00    2.7432716804875998E+01
Au    1.4869754010513178E+01    1.7082741626730042E+00    2.7428548022494223E+01
Au    1.4722799921733376E+00    4.2794902510098298E+00    2.7430813527412457E+01
Au    4.4064929088845952E+00    4.2646283875607285E+00    2.7447624827218217E+01
Au    7.3610834874947875E+00    4.1783971813321834E+00    2.7415023296356964E+01
Au    1.0450793156385489E+01    4.1783984646204164E+00    2.7415019251283606E+01
Au    1.3405387641743545E+01    4.2646236834864526E+00    2.7447622283929569E+01
Au    1.6339599709656508E+01    4.2794897990164706E+00    2.7430816571677248E+01
Au    1.0841010542883867E-06    6.8553879708865226E+00    2.7425438557266318E+01
Au    2.9140947125241898E+00    6.8535827379736283E+00    2.7432070978820445E+01
Au    5.8151709648666783E+00    6.8681954862595385E+00    2.7405051429852424E+01
Au    8.9059372821345448E+00    6.8739426174330234E+00    2.7622227649653656E+01
Au    1.1996711101675293E+01    6.8681880976523670E+00    2.7405056901057407E+01
Au    1.4897786091108905E+01    6.8535828602787259E+00    2.7432071581059425E+01
Au    1.4645667599936418E+00    9.4325649188417700E+00    2.7424570254841747E+01
Au    4.3970200745941010E+00    9.4559092483815270E+00    2.7412399927960113E+01
Au    7.3447080894097558E+00    9.5379480944521013E+00    2.7416799221658120E+01
Au    1.0467166360035959E+01    9.5379575952566764E+00    2.7416805149349976E+01
Au    1.3414855574823784E+01    9.4559086645941708E+00    2.7412402590228353E+01
Au    1.6347311405361879E+01    9.4325661480129117E+00    2.7424572083809430E+01
Au   -1.7454776758422416E-09    1.2000397430653294E+01    2.7422289283284659E+01
Au    2.9459682655720392E+00    1.2005236351501916E+01    2.7425099735582460E+01
Au    5.9049499687755214E+00    1.2051434685661501E+01    2.7436806254535828E+01
Au    8.9059363757906240E+00    1.2051317028385379E+01    2.7453195919518368E+01
Au    1.1906928886160484E+01    1.2051436649372343E+01    2.7436805936954570E+01
Au    1.4865910228920319E+01    1.2005236429386795E+01    2.7425099728840969E+01
Au    1.4717795062146879E+00    1.4564856502829691E+01    2.7429445932663672E+01
Au    4.4224030979771092E+00    1.4569679543647137E+01    2.7423613967431884E+01
Au    7.4083172451698598E+00    1.4578516932622993E+01    2.7426696541929172E+01
Au    1.0403560330516507E+01    1.4578516479953796E+01    2.7426697820058230E+01
Au    1.3389475733907904E+01    1.4569679339810467E+01    2.7423614273280062E+01
Au    1.6340098394186647E+01    1.4564857187247258E+01    2.7429444300904095E+01
Au   -3.7161300209796160E-07    3.8609622418918897E-03    2.9882230324499087E+01
Au    2.9640524323957993E+00    4.1055231948113570E-03    2.9880149029917849E+01
Au    5.9302894365508969E+00   -1.0584464126635097E-02    2.9880080672079540E+01
Au    8.9059392968002413E+00    5.0435775133135085E-04    2.9873406089738243E+01
Au    1.1881588593630445E+01   -1.0584918710914293E-02    2.9880081436475614E+01
Au    1.4847825828659150E+01    4.1046181797051527E-03    2.9880149811562003E+01
Au    1.4853807212101600E+00    2.5731765382968077E+00    2.9881000915484389E+01
Au    4.4501833690221630E+00    2.5686826761534052E+00    2.9887533965195573E+01
Au    7.4135346653124063E+00    2.5638796947913649E+00    2.9876502304593444E+01
Au    1.0398343787812056E+01    2.5638801842834225E+00    2.9876499525615088E+01
Au    1.3361694684215680E+01    2.5686819178066278E+00    2.9887533787029916E+01
Au    1.6326497840500089E+01    2.5731755412348480E+00    2.9881002183020652E+01
Au    5.0634431818997992E-07    5.1441639553103524E+00    2.9878302246330144E+01
Au    2.9639928888716445E+00    5.1438485648711074E+00    2.9887731749115748E+01
Au    5.9399430039442711E+00    5.1487960152899257E+00    2.9846148218208299E+01
Au    8.9059392524814847E+00    5.1207813455705109E+00    2.9887350782682912E+01
Au    1.1871934951490369E+01    5.1487931708644110E+00    2.9846147330434313E+01
Au    1.4847884776340281E+01    5.1438486756171100E+00    2.9887732056984124E+01
Au    1.4792093705298148E+00    7.7174929532266932E+00    2.9882331466764686E+01
Au    4.4465033453772742E+00    7.7111328987116003E+00    2.9876795453114990E+01
Au    7.4014266542285911E+00    7.7262607934034939E+00    2.9890974825735213E+01
Au    1.0410452196128961E+01    7.7262607012500863E+00    2.9890974319635966E+01
Au    1.3365374937598895E+01    7.7111329392147763E+00    2.9876794796668630E+01
Au    1.6332669697978879E+01    7.7174923540580380E+00    2.9882331639111779E+01
Au    3.5725811018571254E-07    1.0290220547403575E+01    2.9879191706257224E+01
Au    2.9682108235854181E+00    1.0280299790211648E+01    2.9877691900691779E+01
Au    5.9294599239265819E+00    1.0294553208822629E+01    2.9880262785386506E+01
Au    8.9059366729268525E+00    1.0279496664839371E+01    2.9847679420720723E+01
Au    1.1882418659259084E+01    1.0294553307774679E+01    2.9880263578392128E+01
Au    1.4843668493412538E+01    1.0280300599658778E+01    2.9877692994280341E+01
Au    1.4794362611639476E+00    1.2856600429567528E+01    2.9881245540792349E+01
Au    4.4370703056366310E+00    1.2855896849429515E+01    2.9881948434678126E+01
Au    7.4152490380861913E+00    1.2857416587226329E+01    2.9885154104960424E+01
Au    1.0396628496965759E+01    1.2857415571340800E+01    2.9885153862021657E+01
Au    1.3374807818050902E+01    1.2855896997847774E+01    2.9881948973400640E+01
Au    1.6332442239946861E+01    1.2856600187871743E+01    2.9881245541027234E+01
     &END COORD
     &KIND Au
       BASIS_SET TZVP-MOLOPT-SR-GTH-q11
       ELEMENT Au
       POTENTIAL GTH-PBE-q11
       &POTENTIAL
1 0 10
0.5900000000000000E+00 1  0.1051717881000000E+02
3
0.5438473300000000E+00 2  0.5786811030000000E+01 -0.2250679660000000E+01
0.2905614950000000E+01
0.6091729800000000E+00 2  0.4284048730000000E+01 -0.4071285200000000E+01
0.4817209620000000E+01
0.4373092200000000E+00 2 -0.7403281240000000E+01  0.3010193070000000E+01
-0.3413238110000000E+01
       &END POTENTIAL
     &END KIND
     &TOPOLOGY
       COORD_FILE_NAME junction_65.xyz
       COORD_FILE_FORMAT  XYZ
       NUMBER_OF_ATOMS  193
       MULTIPLE_UNIT_CELL  1 1 1
     &END TOPOLOGY
   &END SUBSYS
   &PRINT
     &TOTAL_NUMBERS  ON
     &END TOTAL_NUMBERS
   &END PRINT
 &END FORCE_EVAL
