 # Version information for this restart file 
 # current date 2022-05-03 01:26:24.022
 # current working dir /rds/general/user/jj1921/home/junction/ortho/cell_65
 # Program compiled at                              Thu 12 Jul 13:52:12 BST 2018
 # Program compiled on                                      build-2.hpc.ic.ac.uk
 # Program compiled for                                       Linux-x86-64-intel
 # Source code revision number                                         svn:18464
 &GLOBAL
   PRINT_LEVEL  MEDIUM
   PROJECT_NAME Au_junction
   RUN_TYPE  CELL_OPT
 &END GLOBAL
 &MOTION
   &CELL_OPT
     OPTIMIZER  BFGS
     STEP_START_VAL  95
     TYPE  DIRECT_CELL_OPT
     KEEP_ANGLES  T
     KEEP_SYMMETRY  T
     CONSTRAINT  XY
   &END CELL_OPT
   &CONSTRAINT
     &FIXED_ATOMS
       COMPONENTS_TO_FIX  XYZ
       LIST  1..36
     &END FIXED_ATOMS
   &END CONSTRAINT
   &PRINT
     &TRAJECTORY  SILENT
       &EACH
         CELL_OPT  1
       &END EACH
     &END TRAJECTORY
   &END PRINT
 &END MOTION
 &FORCE_EVAL
   METHOD  QS
   STRESS_TENSOR  ANALYTICAL
   &DFT
     BASIS_SET_FILE_NAME /rds/general/user/jj1921/home/BASIS_COM_MOLOPT_GTH
     POTENTIAL_FILE_NAME /rds/general/user/jj1921/home/GTH_POTENTIALS
     &SCF
       MAX_SCF  500
       EPS_SCF     9.9999999999999995E-08
       CHOLESKY  INVERSE
       SCF_GUESS  ATOMIC
       ADDED_MOS  20
       &DIAGONALIZATION  T
         ALGORITHM  STANDARD
       &END DIAGONALIZATION
       &SMEAR  T
         METHOD  FERMI_DIRAC
         ELECTRONIC_TEMPERATURE     3.0000000000000000E+02
       &END SMEAR
       &MIXING  T
         METHOD  BROYDEN_MIXING
         ALPHA     4.0000000000000002E-01
         BETA     5.0000000000000000E-01
         NBUFFER  8
       &END MIXING
     &END SCF
     &QS
       EPS_DEFAULT     1.0000000000000000E-14
       METHOD  GPW
     &END QS
     &MGRID
       NGRIDS  4
       CUTOFF     5.0000000000000000E+02
       REL_CUTOFF     4.0000000000000000E+01
     &END MGRID
     &XC
       DENSITY_CUTOFF     1.0000000000000000E-10
       GRADIENT_CUTOFF     1.0000000000000000E-10
       TAU_CUTOFF     1.0000000000000000E-10
       &XC_FUNCTIONAL  NO_SHORTCUT
         &PBE  T
         &END PBE
       &END XC_FUNCTIONAL
     &END XC
     &KPOINTS
       SCHEME MONKHORST-PACK 4 4 1
       FULL_GRID  T
     &END KPOINTS
   &END DFT
   &SUBSYS
     &CELL
       A     1.7811878396732904E+01    0.0000000000000000E+00    0.0000000000000000E+00
       B     0.0000000000000000E+00    1.5425539180689926E+01    0.0000000000000000E+00
       C     0.0000000000000000E+00    0.0000000000000000E+00    3.3005653263415027E+01
       PERIODIC  XYZ
       MULTIPLE_UNIT_CELL  1 1 1
       SYMMETRY  ORTHORHOMBIC
     &END CELL
     &COORD
Au    1.4843231999999993E+00    8.5697439999999980E-01    0.0000000000000000E+00
Au    4.4529695999999976E+00    8.5697439999999980E-01    0.0000000000000000E+00
Au    7.4216159999999967E+00    8.5697439999999980E-01    0.0000000000000000E+00
Au    1.0390262399999997E+01    8.5697439999999980E-01    0.0000000000000000E+00
Au    1.3358908799999995E+01    8.5697439999999980E-01    0.0000000000000000E+00
Au    1.6327555199999992E+01    8.5697439999999980E-01    0.0000000000000000E+00
Au    0.0000000000000000E+00    3.4278975999999992E+00    0.0000000000000000E+00
Au    2.9686463999999986E+00    3.4278975999999992E+00    0.0000000000000000E+00
Au    5.9372927999999972E+00    3.4278975999999992E+00    0.0000000000000000E+00
Au    8.9059391999999953E+00    3.4278975999999992E+00    0.0000000000000000E+00
Au    1.1874585599999994E+01    3.4278975999999992E+00    0.0000000000000000E+00
Au    1.4843231999999993E+01    3.4278975999999992E+00    0.0000000000000000E+00
Au    1.4843231999999993E+00    5.9988207899999981E+00    0.0000000000000000E+00
Au    4.4529695999999976E+00    5.9988207899999981E+00    0.0000000000000000E+00
Au    7.4216159999999967E+00    5.9988207899999981E+00    0.0000000000000000E+00
Au    1.0390262399999997E+01    5.9988207899999981E+00    0.0000000000000000E+00
Au    1.3358908799999995E+01    5.9988207899999981E+00    0.0000000000000000E+00
Au    1.6327555199999992E+01    5.9988207899999981E+00    0.0000000000000000E+00
Au    0.0000000000000000E+00    8.5697439899999992E+00    0.0000000000000000E+00
Au    2.9686463999999986E+00    8.5697439899999992E+00    0.0000000000000000E+00
Au    5.9372927999999972E+00    8.5697439899999992E+00    0.0000000000000000E+00
Au    8.9059391999999953E+00    8.5697439899999992E+00    0.0000000000000000E+00
Au    1.1874585599999994E+01    8.5697439899999992E+00    0.0000000000000000E+00
Au    1.4843231999999993E+01    8.5697439899999992E+00    0.0000000000000000E+00
Au    1.4843231999999993E+00    1.1140667189999997E+01    0.0000000000000000E+00
Au    4.4529695999999976E+00    1.1140667189999997E+01    0.0000000000000000E+00
Au    7.4216159999999967E+00    1.1140667189999997E+01    0.0000000000000000E+00
Au    1.0390262399999997E+01    1.1140667189999997E+01    0.0000000000000000E+00
Au    1.3358908799999995E+01    1.1140667189999997E+01    0.0000000000000000E+00
Au    1.6327555199999992E+01    1.1140667189999997E+01    0.0000000000000000E+00
Au    0.0000000000000000E+00    1.3711590380000002E+01    0.0000000000000000E+00
Au    2.9686463999999986E+00    1.3711590380000002E+01    0.0000000000000000E+00
Au    5.9372927999999972E+00    1.3711590380000002E+01    0.0000000000000000E+00
Au    8.9059391999999953E+00    1.3711590380000002E+01    0.0000000000000000E+00
Au    1.1874585599999994E+01    1.3711590380000002E+01    0.0000000000000000E+00
Au    1.4843231999999993E+01    1.3711590380000002E+01    0.0000000000000000E+00
Au    2.1429523470977523E-09    1.7076721724841144E+00    2.4059232211600978E+00
Au    2.9602589410400015E+00    1.7111616114431552E+00    2.4035077616859315E+00
Au    5.9219598150698385E+00    1.7105171227930409E+00    2.4039744925370110E+00
Au    8.9059391992343038E+00    1.7313891517736324E+00    2.4143962063058515E+00
Au    1.1889918584965937E+01    1.7105171222361233E+00    2.4039744916360797E+00
Au    1.4851619459744311E+01    1.7111616101000171E+00    2.4035077630403312E+00
Au    1.4814865034020908E+00    4.2767215618978343E+00    2.4028519860998676E+00
Au    4.4526923171515467E+00    4.2865200001687631E+00    2.4281508975879733E+00
Au    7.4053519720875807E+00    4.2853680085540171E+00    2.4151264700933237E+00
Au    1.0406526425411826E+01    4.2853680080515053E+00    2.4151264747764007E+00
Au    1.3359186089036074E+01    4.2865199971232517E+00    2.4281508872476225E+00
Au    1.6330391899481885E+01    4.2767215626757542E+00    2.4028519876408700E+00
Au    1.2904612146284295E-09    6.8490470029154933E+00    2.4019995441385209E+00
Au    2.9605039806685336E+00    6.8479450969694513E+00    2.4019180440412597E+00
Au    5.9286004922629960E+00    6.8452561926935589E+00    2.4176198822853578E+00
Au    8.9059392007721865E+00    6.8571001753109995E+00    2.4659086942202157E+00
Au    1.1883277906510425E+01    6.8452561962877203E+00    2.4176198858569129E+00
Au    1.4851374419838667E+01    6.8479450973353897E+00    2.4019180456851981E+00
Au    1.4876375686811636E+00    9.4236863595144484E+00    2.4064209981349660E+00
Au    4.4622445609857104E+00    9.4206081910223887E+00    2.4104083031764212E+00
Au    7.4270027782035344E+00    9.4381622205463103E+00    2.4207472438219626E+00
Au    1.0384875624164527E+01    9.4381622207171265E+00    2.4207472429234382E+00
Au    1.3349633841355320E+01    9.4206081926694001E+00    2.4104083057437240E+00
Au    1.6324240832284776E+01    9.4236863591989568E+00    2.4064209980141995E+00
Au    1.7964265476924410E-09    1.1991611175193929E+01    2.4085555490000492E+00
Au    2.9688070443903349E+00    1.1993232535839031E+01    2.4046746206301894E+00
Au    5.9379732561618299E+00    1.2006571131715281E+01    2.4038387669797991E+00
Au    8.9059392013067828E+00    1.1996322358174107E+01    2.4311661835299274E+00
Au    1.1873905146060570E+01    1.2006571131640435E+01    2.4038387674805102E+00
Au    1.4843071357327462E+01    1.1993232536093830E+01    2.4046746189745196E+00
Au    1.4803546593937138E+00    1.4563234995479178E+01    2.4083809565069108E+00
Au    4.4440825564554771E+00    1.4568313882531061E+01    2.4021049204933087E+00
Au    7.4220881277555515E+00    1.4577727656992536E+01    2.4023870266958207E+00
Au    1.0389790272683092E+01    1.4577727657000564E+01    2.4023870262187437E+00
Au    1.3367795844286430E+01    1.4568313883322286E+01    2.4021049193756148E+00
Au    1.6331523741660192E+01    1.4563234994747674E+01    2.4083809559368463E+00
Au    3.9755070677161271E-09   -1.2117526922957308E-02    4.8652541699944658E+00
Au    2.9395286513204200E+00   -1.2578559692108924E-02    4.8595198376095112E+00
Au    5.8986048961423743E+00   -2.2596361946778977E-02    4.8573408386557668E+00
Au    8.9059392009875200E+00   -9.1013011745235631E-03    4.8507925130172787E+00
Au    1.1913273504888076E+01   -2.2596361459903923E-02    4.8573408375485192E+00
Au    1.4872349752364572E+01   -1.2578561070716244E-02    4.8595198384437737E+00
Au    1.4635921084385277E+00    2.5531844603403511E+00    4.8648431561429746E+00
Au    4.3970828303569389E+00    2.5279744407622595E+00    4.8568999585103469E+00
Au    7.3617714040303461E+00    2.4809296979865154E+00    4.8520949946369525E+00
Au    1.0450106996765680E+01    2.4809297001088488E+00    4.8520949961356186E+00
Au    1.3414795572731940E+01    2.5279744371280386E+00    4.8568999604582661E+00
Au    1.6348286294182358E+01    2.5531844584243695E+00    4.8648431535186836E+00
Au    4.3508492640971862E-09    5.1297361965216242E+00    4.8582240698600527E+00
Au    2.9108199753872106E+00    5.1256070887702014E+00    4.8586938257073422E+00
Au    5.8201178198899477E+00    5.0713887283129049E+00    4.9143469961629904E+00
Au    8.9059391970960480E+00    4.9340278743360821E+00    4.7858376468602248E+00
Au    1.1991760589882489E+01    5.0713887197118863E+00    4.9143469644923332E+00
Au    1.4901058429646048E+01    5.1256070890353804E+00    4.8586938244918816E+00
Au    1.4534601814508827E+00    7.7149702367468285E+00    4.8583922760924345E+00
Au    4.3470073260931326E+00    7.7161621454572158E+00    4.8507353864943168E+00
Au    7.2424492824710267E+00    7.8102437945983851E+00    4.7969478712092259E+00
Au    1.0569429117445416E+01    7.8102438014760693E+00    4.7969478737938172E+00
Au    1.3464871076182110E+01    7.7161621495512689E+00    4.8507353899518622E+00
Au    1.6358418220391442E+01    7.7149702365683419E+00    4.8583922766012853E+00
Au    3.1704810653302127E-09    1.0284742941166964E+01    4.8524792191108075E+00
Au    2.9381684227316631E+00    1.0299192434148530E+01    4.8501218531480896E+00
Au    5.8777720869275987E+00    1.0366447101308676E+01    4.8524798383855448E+00
Au    8.9059391993195156E+00    1.0408546505581093E+01    4.9202370856565629E+00
Au    1.1934106320434759E+01    1.0366447105931982E+01    4.8524798418679351E+00
Au    1.4873709981658088E+01    1.0299192437383411E+01    4.8501218559035157E+00
Au    1.4731591602613043E+00    1.2853534354196880E+01    4.8578536516641879E+00
Au    4.4174756172217506E+00    1.2873533795083494E+01    4.8583594797844043E+00
Au    7.3993287999860131E+00    1.2902046593868537E+01    4.8533366517336605E+00
Au    1.0412549602588403E+01    1.2902046594900453E+01    4.8533366509397293E+00
Au    1.3394402787390273E+01    1.2873533799523807E+01    4.8583594791778415E+00
Au    1.6338719242457579E+01    1.2853534355000066E+01    4.8578536522116673E+00
Au    7.4353881557165007E+00    5.9956128152425174E+00    6.9556312984181954E+00
Au    1.0376490275811985E+01    5.9956128235294921E+00    6.9556312843674863E+00
Au    8.9059392164148665E+00    8.5302833926577488E+00    6.9672714987228579E+00
Au    8.9059392254376402E+00    6.7821877678232960E+00    9.1603245869945713E+00
Au    8.9059372647682462E+00    6.2365564058241434E+00    1.1733907595699534E+01
Au    8.9059440431697521E+00    7.6018955203925973E+00    1.3988383182948770E+01
Au    8.9059334494159206E+00    7.1407147548898795E+00    1.6581751323538285E+01
Au    8.9059428828565199E+00    5.9936411372094343E+00    1.8943098590160201E+01
Au    8.9059381731846532E+00    7.3429024572689245E+00    2.1189621574581153E+01
Au    8.9059391895824280E+00    6.8867750931984588E+00    2.3787129714513924E+01
Au    8.9059392003264151E+00    5.1717435515679400E+00    2.6013455954002353E+01
Au    7.4488790287523612E+00    7.7082436504505942E+00    2.5999612049308780E+01
Au    1.0362999389434544E+01    7.7082436477797946E+00    2.5999612076074921E+01
Au    1.6781526944118642E-09    1.7109920934431351E+00    2.8151333245501601E+01
Au    2.9437959760739458E+00    1.7085201685651235E+00    2.8147885776133236E+01
Au    5.8923328917181923E+00    1.6731336732275335E+00    2.8152497015491775E+01
Au    8.9059392022079091E+00    1.6662978505958967E+00    2.8137267429149862E+01
Au    1.1919545506826118E+01    1.6731336754873465E+00    2.8152497016178053E+01
Au    1.4868082426056898E+01    1.7085201644848083E+00    2.8147885775574718E+01
Au    1.4703460137357103E+00    4.2789651179239252E+00    2.8151141309879918E+01
Au    4.4066246332041796E+00    4.2641831548679798E+00    2.8164283873618654E+01
Au    7.3655883983424344E+00    4.1796830108842471E+00    2.8124403674456822E+01
Au    1.0446289990462317E+01    4.1796830173191140E+00    2.8124403667926998E+01
Au    1.3405253771314177E+01    4.2641831456907440E+00    2.8164283870860384E+01
Au    1.6341532387116807E+01    4.2789651201649850E+00    2.8151141313235364E+01
Au    3.5749074334891578E-09    6.8596882698054982E+00    2.8151854415852704E+01
Au    2.9171334899175436E+00    6.8552042720450403E+00    2.8152931819356528E+01
Au    5.8214275596987877E+00    6.8753155449428016E+00    2.8112344299931273E+01
Au    8.9059391945756303E+00    6.8661785411000142E+00    2.8330285687375781E+01
Au    1.1990450848825681E+01    6.8753155320647208E+00    2.8112344310207920E+01
Au    1.4894744914776386E+01    6.8552042706336467E+00    2.8152931819774231E+01
Au    1.4650883893104065E+00    9.4383307155396619E+00    2.8147133370812814E+01
Au    4.3973026695036843E+00    9.4599116664152731E+00    2.8132776006112962E+01
Au    7.3463275428912205E+00    9.5309196563507577E+00    2.8117082470175610E+01
Au    1.0465550861850108E+01    9.5309196746726368E+00    2.8117082484118615E+01
Au    1.3414575728310902E+01    9.4599116624585147E+00    2.8132776010183768E+01
Au    1.6346790011608071E+01    9.4383307181404810E+00    2.8147133371032517E+01
Au    1.5917952856185599E-09    1.2006291686796269E+01    2.8144768884700763E+01
Au    2.9454065180152420E+00    1.2012452513126835E+01    2.8146753763452530E+01
Au    5.9038704658509227E+00    1.2048981091171969E+01    2.8156854222082149E+01
Au    8.9059391944530262E+00    1.2048204109016826E+01    2.8170542403107564E+01
Au    1.1908007936618219E+01    1.2048981097920924E+01    2.8156854221154465E+01
Au    1.4866471882943300E+01    1.2012452511945481E+01    2.8146753761959786E+01
Au    1.4737822845388371E+00    1.4569198889267190E+01    2.8149148354083128E+01
Au    4.4235692026336038E+00    1.4571345652373306E+01    2.8150052779170146E+01
Au    7.4082753013658458E+00    1.4575811107375594E+01    2.8152240242835532E+01
Au    1.0403603099096939E+01    1.4575811105082568E+01    2.8152240243022813E+01
Au    1.3388309198540425E+01    1.4571345653749928E+01    2.8150052777892810E+01
Au    1.6338096116133752E+01    1.4569198892595185E+01    2.8149148351876217E+01
Au    1.2069085791321914E-09    2.2046401969166617E-03    3.0598131423160030E+01
Au    2.9639373188575284E+00    4.9246700331894077E-03    3.0598456344160578E+01
Au    5.9339323207310697E+00   -5.7978830785125239E-03    3.0602324794654141E+01
Au    8.9059392012197787E+00    7.9197000026418607E-03    3.0593711486783111E+01
Au    1.1877946080569869E+01   -5.7978850105521460E-03    3.0602324793734468E+01
Au    1.4847941080419623E+01    4.9246696531948650E-03    3.0598456344758208E+01
Au    1.4840782461157149E+00    2.5747757510444895E+00    3.0598055197959727E+01
Au    4.4534153169157618E+00    2.5723494782286593E+00    3.0602362177218769E+01
Au    7.4123688022605156E+00    2.5695554363077613E+00    3.0589874995415023E+01
Au    1.0399509598187823E+01    2.5695554386177624E+00    3.0589874991511021E+01
Au    1.3358463082847196E+01    2.5723494781944605E+00    3.0602362177325372E+01
Au    1.6327800154351770E+01    2.5747757502965563E+00    3.0598055196979455E+01
Au    1.8576392540131935E-09    5.1462209150515994E+00    3.0599701060812908E+01
Au    2.9682273432407387E+00    5.1446725854936899E+00    3.0603240154708882E+01
Au    5.9395222662827338E+00    5.1493972081473336E+00    3.0558798127612040E+01
Au    8.9059391989181957E+00    5.1206496124278278E+00    3.0605598499708492E+01
Au    1.1872356133347166E+01    5.1493972036784594E+00    3.0558798123876713E+01
Au    1.4843651056599473E+01    5.1446725852817234E+00    3.0603240158886013E+01
Au    1.4808447669733233E+00    7.7192136374507205E+00    3.0601941285568312E+01
Au    4.4464593766155129E+00    7.7108463498719306E+00    3.0589518730604787E+01
Au    7.4008024217254738E+00    7.7268374147840824E+00    3.0606679815087457E+01
Au    1.0411075978411311E+01    7.7268374139225013E+00    3.0606679813445098E+01
Au    1.3365419022181408E+01    7.7108463485380323E+00    3.0589518729380980E+01
Au    1.6331033634751854E+01    7.7192136375238762E+00    3.0601941283585305E+01
Au    2.9703235356990465E-09    1.0291102681595925E+01    3.0598992225915229E+01
Au    2.9720935915534676E+00    1.0279950711207933E+01    3.0594849772036408E+01
Au    5.9336992414519214E+00    1.0292466425930526E+01    3.0592073453245803E+01
Au    8.9059391967702144E+00    1.0278131372933581E+01    3.0558727450393885E+01
Au    1.1878179160312646E+01    1.0292466427718294E+01    3.0592073455460927E+01
Au    1.4839784810534654E+01    1.0279950712302281E+01    3.0594849773980595E+01
Au    1.4803398754472983E+00    1.2856948795654480E+01    3.0599107265799915E+01
Au    4.4407070844078405E+00    1.2855500458582785E+01    3.0601072784843311E+01
Au    7.4190590037876900E+00    1.2852608207783451E+01    3.0604680335328201E+01
Au    1.0392819394638968E+01    1.2852608206046469E+01    3.0604680334555056E+01
Au    1.3371171315560185E+01    1.2855500457955387E+01    3.0601072785461586E+01
Au    1.6331538523323754E+01    1.2856948795921976E+01    3.0599107263821296E+01
     &END COORD
     &KIND Au
       BASIS_SET TZVP-MOLOPT-SR-GTH-q11
       ELEMENT Au
       POTENTIAL GTH-PBE-q11
       &POTENTIAL
1 0 10
0.5900000000000000E+00 1  0.1051717881000000E+02
3
0.5438473300000000E+00 2  0.5786811030000000E+01 -0.2250679660000000E+01
0.2905614950000000E+01
0.6091729800000000E+00 2  0.4284048730000000E+01 -0.4071285200000000E+01
0.4817209620000000E+01
0.4373092200000000E+00 2 -0.7403281240000000E+01  0.3010193070000000E+01
-0.3413238110000000E+01
       &END POTENTIAL
     &END KIND
     &TOPOLOGY
       COORD_FILE_NAME junction_65.xyz
       COORD_FILE_FORMAT  XYZ
       NUMBER_OF_ATOMS  193
       MULTIPLE_UNIT_CELL  1 1 1
     &END TOPOLOGY
   &END SUBSYS
   &PRINT
     &TOTAL_NUMBERS  ON
     &END TOTAL_NUMBERS
   &END PRINT
 &END FORCE_EVAL
