 # Version information for this restart file 
 # current date 2022-05-06 16:50:31.078
 # current working dir /rds/general/user/jj1921/home/junction/ortho/cell_65
 # Program compiled at                              Thu 12 Jul 13:52:12 BST 2018
 # Program compiled on                                      build-2.hpc.ic.ac.uk
 # Program compiled for                                       Linux-x86-64-intel
 # Source code revision number                                         svn:18464
 &GLOBAL
   PRINT_LEVEL  MEDIUM
   PROJECT_NAME Au_junction
   RUN_TYPE  CELL_OPT
 &END GLOBAL
 &MOTION
   &CELL_OPT
     OPTIMIZER  BFGS
     STEP_START_VAL  164
     TYPE  DIRECT_CELL_OPT
     KEEP_ANGLES  T
     KEEP_SYMMETRY  T
     CONSTRAINT  XY
   &END CELL_OPT
   &CONSTRAINT
     &FIXED_ATOMS
       COMPONENTS_TO_FIX  XYZ
       LIST  1..36
     &END FIXED_ATOMS
   &END CONSTRAINT
   &PRINT
     &TRAJECTORY  SILENT
       &EACH
         CELL_OPT  1
       &END EACH
     &END TRAJECTORY
   &END PRINT
 &END MOTION
 &FORCE_EVAL
   METHOD  QS
   STRESS_TENSOR  ANALYTICAL
   &DFT
     BASIS_SET_FILE_NAME /rds/general/user/jj1921/home/BASIS_COM_MOLOPT_GTH
     POTENTIAL_FILE_NAME /rds/general/user/jj1921/home/GTH_POTENTIALS
     &SCF
       MAX_SCF  500
       EPS_SCF     9.9999999999999995E-08
       CHOLESKY  INVERSE
       SCF_GUESS  ATOMIC
       ADDED_MOS  20
       &DIAGONALIZATION  T
         ALGORITHM  STANDARD
       &END DIAGONALIZATION
       &SMEAR  T
         METHOD  FERMI_DIRAC
         ELECTRONIC_TEMPERATURE     3.0000000000000000E+02
       &END SMEAR
       &MIXING  T
         METHOD  BROYDEN_MIXING
         ALPHA     4.0000000000000002E-01
         BETA     5.0000000000000000E-01
         NBUFFER  8
       &END MIXING
     &END SCF
     &QS
       EPS_DEFAULT     1.0000000000000000E-14
       METHOD  GPW
     &END QS
     &MGRID
       NGRIDS  4
       CUTOFF     5.0000000000000000E+02
       REL_CUTOFF     4.0000000000000000E+01
     &END MGRID
     &XC
       DENSITY_CUTOFF     1.0000000000000000E-10
       GRADIENT_CUTOFF     1.0000000000000000E-10
       TAU_CUTOFF     1.0000000000000000E-10
       &XC_FUNCTIONAL  NO_SHORTCUT
         &PBE  T
         &END PBE
       &END XC_FUNCTIONAL
     &END XC
     &KPOINTS
       SCHEME MONKHORST-PACK 4 4 1
       FULL_GRID  T
     &END KPOINTS
   &END DFT
   &SUBSYS
     &CELL
       A     1.7811878396732908E+01    0.0000000000000000E+00    0.0000000000000000E+00
       B     0.0000000000000000E+00    1.5425539180689926E+01    0.0000000000000000E+00
       C     0.0000000000000000E+00    0.0000000000000000E+00    3.2319630331862335E+01
       PERIODIC  XYZ
       MULTIPLE_UNIT_CELL  1 1 1
       SYMMETRY  ORTHORHOMBIC
     &END CELL
     &COORD
Au    1.4843231999999993E+00    8.5697439999999980E-01    0.0000000000000000E+00
Au    4.4529695999999976E+00    8.5697439999999980E-01    0.0000000000000000E+00
Au    7.4216159999999967E+00    8.5697439999999980E-01    0.0000000000000000E+00
Au    1.0390262399999999E+01    8.5697439999999980E-01    0.0000000000000000E+00
Au    1.3358908799999995E+01    8.5697439999999980E-01    0.0000000000000000E+00
Au    1.6327555199999992E+01    8.5697439999999980E-01    0.0000000000000000E+00
Au    0.0000000000000000E+00    3.4278975999999992E+00    0.0000000000000000E+00
Au    2.9686463999999986E+00    3.4278975999999992E+00    0.0000000000000000E+00
Au    5.9372927999999972E+00    3.4278975999999992E+00    0.0000000000000000E+00
Au    8.9059391999999953E+00    3.4278975999999992E+00    0.0000000000000000E+00
Au    1.1874585599999994E+01    3.4278975999999992E+00    0.0000000000000000E+00
Au    1.4843231999999993E+01    3.4278975999999992E+00    0.0000000000000000E+00
Au    1.4843231999999993E+00    5.9988207899999981E+00    0.0000000000000000E+00
Au    4.4529695999999976E+00    5.9988207899999981E+00    0.0000000000000000E+00
Au    7.4216159999999967E+00    5.9988207899999981E+00    0.0000000000000000E+00
Au    1.0390262399999999E+01    5.9988207899999981E+00    0.0000000000000000E+00
Au    1.3358908799999995E+01    5.9988207899999981E+00    0.0000000000000000E+00
Au    1.6327555199999992E+01    5.9988207899999981E+00    0.0000000000000000E+00
Au    0.0000000000000000E+00    8.5697439900000010E+00    0.0000000000000000E+00
Au    2.9686463999999986E+00    8.5697439900000010E+00    0.0000000000000000E+00
Au    5.9372927999999972E+00    8.5697439900000010E+00    0.0000000000000000E+00
Au    8.9059391999999953E+00    8.5697439900000010E+00    0.0000000000000000E+00
Au    1.1874585599999994E+01    8.5697439900000010E+00    0.0000000000000000E+00
Au    1.4843231999999993E+01    8.5697439900000010E+00    0.0000000000000000E+00
Au    1.4843231999999993E+00    1.1140667189999997E+01    0.0000000000000000E+00
Au    4.4529695999999976E+00    1.1140667189999997E+01    0.0000000000000000E+00
Au    7.4216159999999967E+00    1.1140667189999997E+01    0.0000000000000000E+00
Au    1.0390262399999999E+01    1.1140667189999997E+01    0.0000000000000000E+00
Au    1.3358908799999995E+01    1.1140667189999997E+01    0.0000000000000000E+00
Au    1.6327555199999992E+01    1.1140667189999997E+01    0.0000000000000000E+00
Au    0.0000000000000000E+00    1.3711590380000004E+01    0.0000000000000000E+00
Au    2.9686463999999986E+00    1.3711590380000004E+01    0.0000000000000000E+00
Au    5.9372927999999972E+00    1.3711590380000004E+01    0.0000000000000000E+00
Au    8.9059391999999953E+00    1.3711590380000004E+01    0.0000000000000000E+00
Au    1.1874585599999994E+01    1.3711590380000004E+01    0.0000000000000000E+00
Au    1.4843231999999993E+01    1.3711590380000004E+01    0.0000000000000000E+00
Au    3.8252758584730908E-07    1.7078444148044394E+00    2.4125898717626160E+00
Au    2.9545608302536759E+00    1.7048282072786571E+00    2.4087307363366399E+00
Au    5.9203074574643111E+00    1.7108955732108511E+00    2.4051220579708819E+00
Au    8.9059393364265649E+00    1.7276430813948693E+00    2.4175845664301359E+00
Au    1.1891571534358912E+01    1.7108949999873244E+00    2.4051217689636344E+00
Au    1.4857318320357768E+01    1.7048276374350992E+00    2.4087310504299264E+00
Au    1.4768726010465010E+00    4.2768984453859451E+00    2.4076310288751297E+00
Au    4.4398207457131837E+00    4.2813204413091785E+00    2.4273640382887596E+00
Au    7.4026925158558665E+00    4.2820888738535965E+00    2.4146607296249720E+00
Au    1.0409186393865182E+01    4.2820889234019486E+00    2.4146614710894472E+00
Au    1.3372059454294879E+01    4.2813195076157715E+00    2.4273617429621410E+00
Au    1.6335007261167245E+01    4.2768984928473195E+00    2.4076312300363467E+00
Au    5.3232087249161007E-07    6.8542755451669661E+00    2.4099629710237576E+00
Au    2.9568831061471701E+00    6.8498925930464951E+00    2.4065106106469139E+00
Au    5.9256932336736527E+00    6.8435115907462061E+00    2.4195391540266180E+00
Au    8.9059393969340093E+00    6.8513440514032764E+00    2.4734532005874486E+00
Au    1.1886185519509475E+01    6.8435120174434427E+00    2.4195402768272816E+00
Au    1.4854996284658940E+01    6.8498922589929396E+00    2.4065104569317040E+00
Au    1.4855730936355169E+00    9.4261938237485801E+00    2.4127820684584149E+00
Au    4.4597555830566771E+00    9.4223873979655259E+00    2.4163577837172716E+00
Au    7.4275235395177184E+00    9.4371150684492964E+00    2.4214868522755886E+00
Au    1.0384355741282283E+01    9.4371148509744565E+00    2.4214868125335527E+00
Au    1.3352123299969263E+01    9.4223877381694052E+00    2.4163585946473725E+00
Au    1.6326305450347849E+01    9.4261938289654736E+00    2.4127817321684084E+00
Au   -2.9253269892898038E-08    1.1990958043694512E+01    2.4119468749703183E+00
Au    2.9661583030275400E+00    1.1996296381281811E+01    2.4126795888223893E+00
Au    5.9358916539074480E+00    1.2006223894989649E+01    2.4081812055954197E+00
Au    8.9059393600161680E+00    1.1997955811661644E+01    2.4368461948989242E+00
Au    1.1875986929288127E+01    1.2006224114497309E+01    2.4081812962891642E+00
Au    1.4845720363099085E+01    1.1996296677712422E+01    2.4126791415829647E+00
Au    1.4784269485541168E+00    1.4562454854288157E+01    2.4116099511973736E+00
Au    4.4442941285851516E+00    1.4566023216052463E+01    2.4094185659144118E+00
Au    7.4211498351346687E+00    1.4578077780738960E+01    2.4083780911515893E+00
Au    1.0390728381734700E+01    1.4578077928664356E+01    2.4083781340734904E+00
Au    1.3367584779906654E+01    1.4566023115850124E+01    2.4094182884285837E+00
Au    1.6333451843247794E+01    1.4562454710856498E+01    2.4116095747273283E+00
Au    4.4936443389895912E-07   -6.5640333028211990E-03    4.8750736866729980E+00
Au    2.9388568776473352E+00   -1.5722899339625701E-02    4.8712749933537491E+00
Au    5.8997450155525026E+00   -2.2007661600122363E-02    4.8680926416906143E+00
Au    8.9059392851526837E+00   -1.0402917829442094E-02    4.8576588632852236E+00
Au    1.1912134011025232E+01   -2.2008026558442188E-02    4.8680922680121714E+00
Au    1.4873022248125130E+01   -1.5723216618099622E-02    4.8712754494238775E+00
Au    1.4631518673016175E+00    2.5556317817545406E+00    4.8752006893442381E+00
Au    4.3936876832132690E+00    2.5195661532866542E+00    4.8671805355909585E+00
Au    7.3599165663388639E+00    2.4789288104940277E+00    4.8549129347598550E+00
Au    1.0451962929040443E+01    2.4789283336785557E+00    4.8549130798706885E+00
Au    1.3418191759656082E+01    2.5195655254434488E+00    4.8671809178252499E+00
Au    1.6348727673902282E+01    2.5556315114366721E+00    4.8752001301704002E+00
Au    9.6466816145648159E-07    5.1385146949320655E+00    4.8705316629501905E+00
Au    2.9021876396193109E+00    5.1265141561549639E+00    4.8674266185224084E+00
Au    5.8023119890320114E+00    5.0634104405296219E+00    4.8968632432939367E+00
Au    8.9059405556192619E+00    4.9226037850829112E+00    4.7768183753263829E+00
Au    1.2009569431807732E+01    5.0634077912683475E+00    4.8968599253576910E+00
Au    1.4909692130583823E+01    5.1265139268703548E+00    4.8674264285775353E+00
Au    1.4542879565050195E+00    7.7224651855494848E+00    4.8713147628084137E+00
Au    4.3480801381504426E+00    7.7163510352741929E+00    4.8586306495896059E+00
Au    7.2399060157565041E+00    7.8067652644013501E+00    4.7935138354248057E+00
Au    1.0571973412575391E+01    7.8067659789355481E+00    4.7935133357111726E+00
Au    1.3463800541011210E+01    7.7163512686000866E+00    4.8586308331213219E+00
Au    1.6357592380447365E+01    7.7224650431889579E+00    4.8713138030680430E+00
Au    3.3242542947056000E-07    1.0292900522252983E+01    4.8643016535451000E+00
Au    2.9396314306626339E+00    1.0300744566229140E+01    4.8633554003726474E+00
Au    5.8763903155070061E+00    1.0365846028152099E+01    4.8577601449163312E+00
Au    8.9059381446637396E+00    1.0398854901401817E+01    4.9207955758943625E+00
Au    1.1935490115029362E+01    1.0365847471940757E+01    4.8577603284433239E+00
Au    1.4872248462797927E+01    1.0300745102379835E+01    4.8633559979894931E+00
Au    1.4732590794851568E+00    1.2857586795607677E+01    4.8682758518078426E+00
Au    4.4192902938345693E+00    1.2874924929636475E+01    4.8716501223888695E+00
Au    7.4003065810771185E+00    1.2899086116911496E+01    4.8626782059034666E+00
Au    1.0411572047435863E+01    1.2899085893958416E+01    4.8626777620247328E+00
Au    1.3392589328376033E+01    1.2874925927919936E+01    4.8716502883107529E+00
Au    1.6338619644472566E+01    1.2857586974679293E+01    4.8682759108775304E+00
Au    7.4214030551933963E+00    5.9671527875717389E+00    6.9310972372984612E+00
Au    1.0390478984600854E+01    5.9671636137852921E+00    6.9310991742015782E+00
Au    8.9059469923706907E+00    8.5070812768601023E+00    6.9579297146847985E+00
Au    8.9059221315764976E+00    6.7293763265950792E+00    9.1168529074489832E+00
Au    8.9054154250536008E+00    6.3747979353957156E+00    1.1700942826181851E+01
Au    8.9069220900015047E+00    8.0619608773867508E+00    1.3712688426053159E+01
Au    8.9049993100984786E+00    7.3143991397019725E+00    1.6219450403885642E+01
Au    8.9066556316056591E+00    5.8210201289898871E+00    1.8366432340362213E+01
Au    8.9056720306810639E+00    7.2396319544556347E+00    2.0549565221328546E+01
Au    8.9059366272774874E+00    6.8925469392893062E+00    2.3147333070149163E+01
Au    8.9059400350471325E+00    5.1675600839043163E+00    2.5341952730618942E+01
Au    7.4350528354858945E+00    7.7163529799936894E+00    2.5330180899973289E+01
Au    1.0376830500957416E+01    7.7163524845137106E+00    2.5330187889115873E+01
Au   -2.9972077590146820E-07    1.7103003188613375E+00    2.7454298837251347E+01
Au    2.9403837552088699E+00    1.7068078786926961E+00    2.7451469784208037E+01
Au    5.8872934514478903E+00    1.6697577863659641E+00    2.7460644911960575E+01
Au    8.9059386718557789E+00    1.6660356001909657E+00    2.7448449603528775E+01
Au    1.1924584609068662E+01    1.6697572114473695E+00    2.7460645063498639E+01
Au    1.4871495558249650E+01    1.7068064370284299E+00    2.7451470036553104E+01
Au    1.4697535110715307E+00    4.2770705003455811E+00    2.7454417306656449E+01
Au    4.4047087767250597E+00    4.2625862666292802E+00    2.7469259796503053E+01
Au    7.3572684502446268E+00    4.1750677065603883E+00    2.7436052085364274E+01
Au    1.0454608733991641E+01    4.1750684890916210E+00    2.7436049528951155E+01
Au    1.3407170769909925E+01    4.2625837504107684E+00    2.7469258543688991E+01
Au    1.6342125565059924E+01    4.2770701752408096E+00    2.7454418986244065E+01
Au    5.7728808549676867E-07    6.8591894767567076E+00    2.7450998451791627E+01
Au    2.9112104832709149E+00    6.8537566400317482E+00    2.7456389393182679E+01
Au    5.8129161661894084E+00    6.8672439228980116E+00    2.7431572554072883E+01
Au    8.9059381606690966E+00    6.8708792765741329E+00    2.7649821081517540E+01
Au    1.1998964463543961E+01    6.8672397353983321E+00    2.7431575696019557E+01
Au    1.4900669330252796E+01    6.8537567649101110E+00    2.7456389858071322E+01
Au    1.4654993748697753E+00    9.4363019122229712E+00    2.7448536948196132E+01
Au    4.3950185959848858E+00    9.4588028440443441E+00    2.7435906779261639E+01
Au    7.3428171727717739E+00    9.5429195210325535E+00    2.7433182178728067E+01
Au    1.0469059180811485E+01    9.5429250904534531E+00    2.7433186043761172E+01
Au    1.3416858368209951E+01    9.4588025557552253E+00    2.7435908304594594E+01
Au    1.6346378944147222E+01    9.4363025289235392E+00    2.7448537912763275E+01
Au    9.2499588579097453E-09    1.2002663990946928E+01    2.7448628162571580E+01
Au    2.9431289186141005E+00    1.2009435947709663E+01    2.7449935772295802E+01
Au    5.8985282757464814E+00    1.2055590876091911E+01    2.7461247428521432E+01
Au    8.9059375865788457E+00    1.2048567834684317E+01    2.7475773028014441E+01
Au    1.1913350474994751E+01    1.2055592034473539E+01    2.7461247329106936E+01
Au    1.4868749552354402E+01    1.2009435984758092E+01    2.7449935807076237E+01
Au    1.4717309042121491E+00    1.4565749278767033E+01    2.7453678641610953E+01
Au    4.4184613029719300E+00    1.4571758907683877E+01    2.7452921679369918E+01
Au    7.4081741687654139E+00    1.4576286390762577E+01    2.7458831362914740E+01
Au    1.0403703780262443E+01    1.4576286153439371E+01    2.7458832044654734E+01
Au    1.3393417333193334E+01    1.4571758925305108E+01    2.7452921813367706E+01
Au    1.6340147242600530E+01    1.4565749641793003E+01    2.7453677749237599E+01
Au   -2.0194036823049278E-07    5.4944083262133455E-03    2.9907889144509500E+01
Au    2.9616133872247059E+00    4.8992694239105104E-03    2.9907768127312167E+01
Au    5.9318472177282846E+00   -7.6828677675128175E-03    2.9911068805271395E+01
Au    8.9059392608077328E+00    1.6354482757000260E-03    2.9906410495825725E+01
Au    1.1880030951248610E+01   -7.6831219516000160E-03    2.9911069227526866E+01
Au    1.4850264892660775E+01    4.8988321663042062E-03    2.9907768540339415E+01
Au    1.4819354218202845E+00    2.5758124913748373E+00    2.9907210483323034E+01
Au    4.4513604305877141E+00    2.5704172855151275E+00    2.9911395147416989E+01
Au    7.4122793361318653E+00    2.5649939002322872E+00    2.9900039260025448E+01
Au    1.0399599053019577E+01    2.5649942950414060E+00    2.9900037628620048E+01
Au    1.3360517775973722E+01    2.5704168594264409E+00    2.9911395169248312E+01
Au    1.6329943075875736E+01    2.5758119389181395E+00    2.9907211143289846E+01
Au    2.2901071528131442E-07    5.1458516246656343E+00    2.9907577515336804E+01
Au    2.9647021132319913E+00    5.1462785382208143E+00    2.9911706370003870E+01
Au    5.9397922010363553E+00    5.1461562876986093E+00    2.9866574026824960E+01
Au    8.9059392107313471E+00    5.1194349295561672E+00    2.9911926601608432E+01
Au    1.1872085927247968E+01    5.1461547041641653E+00    2.9866573461160087E+01
Au    1.4847175863053304E+01    5.1462786335876478E+00    2.9911706620837688E+01
Au    1.4793557361979763E+00    7.7201918802850757E+00    2.9910688553895980E+01
Au    4.4431663158780381E+00    7.7119671022129674E+00    2.9900232147295299E+01
Au    7.4007492842332097E+00    7.7252874928287527E+00    2.9913869021649113E+01
Au    1.0411129354842114E+01    7.7252874551579733E+00    2.9913868904633460E+01
Au    1.3368711997657645E+01    7.7119671119192370E+00    2.9900231806690353E+01
Au    1.6332523093463625E+01    7.7201915933575842E+00    2.9910688684454964E+01
Au    2.1158855577948615E-07    1.0290983816521452E+01    2.9908231368871739E+01
Au    2.9699225112537517E+00    1.0282185438403435E+01    2.9903076318375163E+01
Au    5.9314514973068562E+00    1.0293076372687382E+01    2.9900841704989205E+01
Au    8.9059377622490441E+00    1.0276291903062685E+01    2.9868008990222922E+01
Au    1.1880427069138731E+01    1.0293076483710514E+01    2.9900842216486215E+01
Au    1.4841956429659907E+01    1.0282185866118684E+01    2.9903076950809865E+01
Au    1.4792035583178844E+00    1.2857764599195752E+01    2.9908659162245765E+01
Au    4.4365992834701737E+00    1.2857906348015200E+01    2.9911054901197666E+01
Au    7.4172783709178720E+00    1.2850597303875947E+01    2.9912807465747537E+01
Au    1.0394599532950494E+01    1.2850596718393570E+01    2.9912807287125254E+01
Au    1.3375278999142473E+01    1.2857906453565867E+01    2.9911055230194652E+01
Au    1.6332674907554356E+01    1.2857764478543659E+01    2.9908659137661289E+01
     &END COORD
     &KIND Au
       BASIS_SET TZVP-MOLOPT-SR-GTH-q11
       ELEMENT Au
       POTENTIAL GTH-PBE-q11
       &POTENTIAL
1 0 10
0.5900000000000000E+00 1  0.1051717881000000E+02
3
0.5438473300000000E+00 2  0.5786811030000000E+01 -0.2250679660000000E+01
0.2905614950000000E+01
0.6091729800000000E+00 2  0.4284048730000000E+01 -0.4071285200000000E+01
0.4817209620000000E+01
0.4373092200000000E+00 2 -0.7403281240000000E+01  0.3010193070000000E+01
-0.3413238110000000E+01
       &END POTENTIAL
     &END KIND
     &TOPOLOGY
       COORD_FILE_NAME junction_65.xyz
       COORD_FILE_FORMAT  XYZ
       NUMBER_OF_ATOMS  193
       MULTIPLE_UNIT_CELL  1 1 1
     &END TOPOLOGY
   &END SUBSYS
   &PRINT
     &TOTAL_NUMBERS  ON
     &END TOTAL_NUMBERS
   &END PRINT
 &END FORCE_EVAL
