 # Version information for this restart file 
 # current date 2022-04-30 09:00:01.507
 # current working dir /rds/general/user/jj1921/home/junction/ortho/cell_65
 # Program compiled at                              Thu 12 Jul 13:52:12 BST 2018
 # Program compiled on                                      build-2.hpc.ic.ac.uk
 # Program compiled for                                       Linux-x86-64-intel
 # Source code revision number                                         svn:18464
 &GLOBAL
   PRINT_LEVEL  MEDIUM
   PROJECT_NAME Au_junction
   RUN_TYPE  CELL_OPT
 &END GLOBAL
 &MOTION
   &CELL_OPT
     OPTIMIZER  BFGS
     STEP_START_VAL  42
     TYPE  DIRECT_CELL_OPT
     KEEP_ANGLES  T
     KEEP_SYMMETRY  T
     CONSTRAINT  XY
   &END CELL_OPT
   &CONSTRAINT
     &FIXED_ATOMS
       COMPONENTS_TO_FIX  XYZ
       LIST  1..36
     &END FIXED_ATOMS
   &END CONSTRAINT
   &PRINT
     &TRAJECTORY  SILENT
       &EACH
         CELL_OPT  1
       &END EACH
     &END TRAJECTORY
   &END PRINT
 &END MOTION
 &FORCE_EVAL
   METHOD  QS
   STRESS_TENSOR  ANALYTICAL
   &DFT
     BASIS_SET_FILE_NAME /rds/general/user/jj1921/home/BASIS_COM_MOLOPT_GTH
     POTENTIAL_FILE_NAME /rds/general/user/jj1921/home/GTH_POTENTIALS
     &SCF
       MAX_SCF  500
       EPS_SCF     9.9999999999999995E-08
       CHOLESKY  INVERSE
       SCF_GUESS  ATOMIC
       ADDED_MOS  20
       &DIAGONALIZATION  T
         ALGORITHM  STANDARD
       &END DIAGONALIZATION
       &SMEAR  T
         METHOD  FERMI_DIRAC
         ELECTRONIC_TEMPERATURE     3.0000000000000000E+02
       &END SMEAR
       &MIXING  T
         METHOD  BROYDEN_MIXING
         ALPHA     4.0000000000000002E-01
         BETA     5.0000000000000000E-01
         NBUFFER  8
       &END MIXING
     &END SCF
     &QS
       EPS_DEFAULT     1.0000000000000000E-14
       METHOD  GPW
     &END QS
     &MGRID
       NGRIDS  4
       CUTOFF     5.0000000000000000E+02
       REL_CUTOFF     4.0000000000000000E+01
     &END MGRID
     &XC
       DENSITY_CUTOFF     1.0000000000000000E-10
       GRADIENT_CUTOFF     1.0000000000000000E-10
       TAU_CUTOFF     1.0000000000000000E-10
       &XC_FUNCTIONAL  NO_SHORTCUT
         &PBE  T
         &END PBE
       &END XC_FUNCTIONAL
     &END XC
     &KPOINTS
       SCHEME MONKHORST-PACK 4 4 1
       FULL_GRID  T
     &END KPOINTS
   &END DFT
   &SUBSYS
     &CELL
       A     1.7811878396732901E+01    0.0000000000000000E+00    0.0000000000000000E+00
       B     0.0000000000000000E+00    1.5425539180689929E+01    0.0000000000000000E+00
       C     0.0000000000000000E+00    0.0000000000000000E+00    3.4020226136540593E+01
       PERIODIC  XYZ
       MULTIPLE_UNIT_CELL  1 1 1
       SYMMETRY  ORTHORHOMBIC
     &END CELL
     &COORD
Au    1.4843231999999995E+00    8.5697439999999980E-01    0.0000000000000000E+00
Au    4.4529695999999985E+00    8.5697439999999980E-01    0.0000000000000000E+00
Au    7.4216159999999975E+00    8.5697439999999980E-01    0.0000000000000000E+00
Au    1.0390262399999999E+01    8.5697439999999980E-01    0.0000000000000000E+00
Au    1.3358908799999998E+01    8.5697439999999980E-01    0.0000000000000000E+00
Au    1.6327555199999995E+01    8.5697439999999980E-01    0.0000000000000000E+00
Au    0.0000000000000000E+00    3.4278975999999992E+00    0.0000000000000000E+00
Au    2.9686463999999990E+00    3.4278975999999992E+00    0.0000000000000000E+00
Au    5.9372927999999980E+00    3.4278975999999992E+00    0.0000000000000000E+00
Au    8.9059391999999971E+00    3.4278975999999992E+00    0.0000000000000000E+00
Au    1.1874585599999996E+01    3.4278975999999992E+00    0.0000000000000000E+00
Au    1.4843231999999995E+01    3.4278975999999992E+00    0.0000000000000000E+00
Au    1.4843231999999995E+00    5.9988207899999981E+00    0.0000000000000000E+00
Au    4.4529695999999985E+00    5.9988207899999981E+00    0.0000000000000000E+00
Au    7.4216159999999975E+00    5.9988207899999981E+00    0.0000000000000000E+00
Au    1.0390262399999999E+01    5.9988207899999981E+00    0.0000000000000000E+00
Au    1.3358908799999998E+01    5.9988207899999981E+00    0.0000000000000000E+00
Au    1.6327555199999995E+01    5.9988207899999981E+00    0.0000000000000000E+00
Au    0.0000000000000000E+00    8.5697439899999974E+00    0.0000000000000000E+00
Au    2.9686463999999990E+00    8.5697439899999974E+00    0.0000000000000000E+00
Au    5.9372927999999980E+00    8.5697439899999974E+00    0.0000000000000000E+00
Au    8.9059391999999971E+00    8.5697439899999974E+00    0.0000000000000000E+00
Au    1.1874585599999996E+01    8.5697439899999974E+00    0.0000000000000000E+00
Au    1.4843231999999995E+01    8.5697439899999974E+00    0.0000000000000000E+00
Au    1.4843231999999995E+00    1.1140667189999997E+01    0.0000000000000000E+00
Au    4.4529695999999985E+00    1.1140667189999997E+01    0.0000000000000000E+00
Au    7.4216159999999975E+00    1.1140667189999997E+01    0.0000000000000000E+00
Au    1.0390262399999999E+01    1.1140667189999997E+01    0.0000000000000000E+00
Au    1.3358908799999998E+01    1.1140667189999997E+01    0.0000000000000000E+00
Au    1.6327555199999995E+01    1.1140667189999997E+01    0.0000000000000000E+00
Au    0.0000000000000000E+00    1.3711590380000001E+01    0.0000000000000000E+00
Au    2.9686463999999990E+00    1.3711590380000001E+01    0.0000000000000000E+00
Au    5.9372927999999980E+00    1.3711590380000001E+01    0.0000000000000000E+00
Au    8.9059391999999971E+00    1.3711590380000001E+01    0.0000000000000000E+00
Au    1.1874585599999996E+01    1.3711590380000001E+01    0.0000000000000000E+00
Au    1.4843231999999995E+01    1.3711590380000001E+01    0.0000000000000000E+00
Au    1.4018230561681350E-09    1.6947870922628723E+00    2.4136864743741802E+00
Au    2.9517108400910050E+00    1.7115606632703761E+00    2.4025618743821080E+00
Au    5.9148425928732413E+00    1.7128976342099154E+00    2.4009935201981643E+00
Au    8.9059392007521652E+00    1.7342052493762907E+00    2.4005333996826135E+00
Au    1.1897035807829418E+01    1.7128976337952575E+00    2.4009935202701898E+00
Au    1.4860167561269064E+01    1.7115606612042176E+00    2.4025618715761459E+00
Au    1.4805822045885328E+00    4.2651739787802683E+00    2.3977412317766418E+00
Au    4.4583533622648073E+00    4.2925486597599711E+00    2.4085854617692228E+00
Au    7.4048294864166362E+00    4.2975707492233779E+00    2.4122085650750100E+00
Au    1.0407048915484502E+01    4.2975707481265717E+00    2.4122085648612317E+00
Au    1.3353525037636601E+01    4.2925486590307056E+00    2.4085854749623437E+00
Au    1.6331296192337646E+01    4.2651739779084350E+00    2.3977412298507796E+00
Au    1.2802252248477619E-09    6.8342414769903108E+00    2.3943122153033878E+00
Au    2.9585858060374655E+00    6.8422240672846488E+00    2.3990959548437458E+00
Au    5.9329278559800702E+00    6.8469399670088169E+00    2.4088027895964643E+00
Au    8.9059392017694989E+00    6.8657244383981579E+00    2.4582788077831990E+00
Au    1.1878950543032161E+01    6.8469399672322346E+00    2.4088027888400223E+00
Au    1.4853292593115716E+01    6.8422240669159820E+00    2.3990959580424267E+00
Au    1.4902568650679924E+00    9.4071793768212970E+00    2.4094417784993647E+00
Au    4.4514362850864098E+00    9.4238948899899455E+00    2.3980627565263406E+00
Au    7.4318828177432019E+00    9.4447800271960265E+00    2.4083639487402824E+00
Au    1.0379995581446048E+01    9.4447800269682638E+00    2.4083639490989825E+00
Au    1.3360442114658412E+01    9.4238948905279418E+00    2.3980627525769678E+00
Au    1.6321621533977982E+01    9.4071793777491521E+00    2.4094417836999100E+00
Au    2.6313132089892388E-09    1.1971398280857793E+01    2.4216250671869148E+00
Au    2.9761507519361468E+00    1.1982974452037814E+01    2.4108834842468574E+00
Au    5.9390766896239739E+00    1.2015788336548399E+01    2.3989981872275621E+00
Au    8.9059392004670030E+00    1.2002703385738538E+01    2.3989605912618717E+00
Au    1.1872801709656455E+01    1.2015788337490388E+01    2.3989981842759267E+00
Au    1.4835727649292469E+01    1.1982974452392110E+01    2.4108834842513982E+00
Au    1.4821293939424047E+00    1.4548925626259630E+01    2.4242310760857877E+00
Au    4.4392849129622594E+00    1.4569406815045022E+01    2.3975021596679249E+00
Au    7.4251093634783967E+00    1.4595426283096176E+01    2.3885235880320166E+00
Au    1.0386769036427417E+01    1.4595426281923523E+01    2.3885235863064866E+00
Au    1.3372593487784659E+01    1.4569406814529318E+01    2.3975021586089373E+00
Au    1.6329749006213596E+01    1.4548925625888719E+01    2.4242310722081881E+00
Au    2.3565770515856283E-09   -2.2212824515619838E-02    4.8745697054287209E+00
Au    2.9393121350459914E+00   -7.5165051116318736E-03    4.8743846522407503E+00
Au    5.9068229849679286E+00   -1.1378850869996593E-02    4.8612851737980316E+00
Au    8.9059392005676461E+00    7.5612226716117942E-03    4.8447562481782089E+00
Au    1.1905055416613960E+01   -1.1378850535516268E-02    4.8612851742371230E+00
Au    1.4872566264280945E+01   -7.5165029356136382E-03    4.8743846498604544E+00
Au    1.4559715541698517E+00    2.5559578627979245E+00    4.8789714157099411E+00
Au    4.4011771604488326E+00    2.5206450831745117E+00    4.8601392648507700E+00
Au    7.3631486445777510E+00    2.4810817764434798E+00    4.8336265949665842E+00
Au    1.0448729757586216E+01    2.4810817773228697E+00    4.8336265944452723E+00
Au    1.3410701239834069E+01    2.5206450821187518E+00    4.8601392635702565E+00
Au    1.6355906845573752E+01    2.5559578599104387E+00    4.8789714175175165E+00
Au    3.0245887158897340E-09    5.1248024855523076E+00    4.8705465832158028E+00
Au    2.9012240008570300E+00    5.1325792345419607E+00    4.8605804287544618E+00
Au    5.8013254213571521E+00    5.0639090943288494E+00    4.8811091229856256E+00
Au    8.9059392016514050E+00    4.9179483815953686E+00    4.7835373166187019E+00
Au    1.2010552979927175E+01    5.0639090944877490E+00    4.8811091265291102E+00
Au    1.4910654399746777E+01    5.1325792377749071E+00    4.8605804350980932E+00
Au    1.4633422960598355E+00    7.6975456232883479E+00    4.8676206261777315E+00
Au    4.3558744533122500E+00    7.7141988892294950E+00    4.8362203639967838E+00
Au    7.2388127644423719E+00    7.8195509485148218E+00    4.7778900075601687E+00
Au    1.0573065638762960E+01    7.8195509529491138E+00    4.7778900103630244E+00
Au    1.3456003948906675E+01    7.7141988905414633E+00    4.8362203658826566E+00
Au    1.6348536105769821E+01    7.6975456242743254E+00    4.8676206244843536E+00
Au    2.6025634389994442E-09    1.0257962312858574E+01    4.8618171807839934E+00
Au    2.9405305939351232E+00    1.0284559307577162E+01    4.8514181308052908E+00
Au    5.8810239182655621E+00    1.0368448864826107E+01    4.8296794540118020E+00
Au    8.9059391998050543E+00    1.0450441403933171E+01    4.8706480303290487E+00
Au    1.1930854483613283E+01    1.0368448866308745E+01    4.8296794553758486E+00
Au    1.4871347806314818E+01    1.0284559310069980E+01    4.8514181315621965E+00
Au    1.4803166564130024E+00    1.2840586186341421E+01    4.8659129947105306E+00
Au    4.4264302864099836E+00    1.2870371712707456E+01    4.8645982913715686E+00
Au    7.3936841847701800E+00    1.2918808118093125E+01    4.8408187602633674E+00
Au    1.0418194217476533E+01    1.2918808120639991E+01    4.8408187616023888E+00
Au    1.3385448117616784E+01    1.2870371712978331E+01    4.8645982907718670E+00
Au    1.6331561747176664E+01    1.2840586185242406E+01    4.8659129936813512E+00
Au    7.4154942525084238E+00    5.9926749859086641E+00    6.9423052842290085E+00
Au    1.0396384150327783E+01    5.9926749881308217E+00    6.9423052846525986E+00
Au    8.9059392005937763E+00    8.5953456997146169E+00    6.9291854711185845E+00
Au    8.9059392020478612E+00    6.8812618844268139E+00    9.0504791235550286E+00
Au    8.9059391729999948E+00    6.7037411007302641E+00    1.1700994502919780E+01
Au    8.9059392205481629E+00    7.0470686460367560E+00    1.4301288356624770E+01
Au    8.9059391663656573E+00    6.8829671992837120E+00    1.6969484055770486E+01
Au    8.9059392228484118E+00    6.6321694651628311E+00    1.9604049681716116E+01
Au    8.9059392003566025E+00    7.0109828702672470E+00    2.2231358761447002E+01
Au    8.9059392023450084E+00    6.8307840873625985E+00    2.4831449535002591E+01
Au    8.9059391945648283E+00    5.1456277499095631E+00    2.7024293393015022E+01
Au    7.4370099183948382E+00    7.7136129058147676E+00    2.7010993370313752E+01
Au    1.0374868481129983E+01    7.7136128987781820E+00    2.7010993370809356E+01
Au    1.9517308212835727E-09    1.7229240157658727E+00    2.9159432422810543E+01
Au    2.9556973365506822E+00    1.7170430280762596E+00    2.9159506236289069E+01
Au    5.9060395826541860E+00    1.6748898498594653E+00    2.9175117063583926E+01
Au    8.9059391996933126E+00    1.6619323021486736E+00    2.9173530612589676E+01
Au    1.1905838815165245E+01    1.6748898536037937E+00    2.9175117061189471E+01
Au    1.4856181065869851E+01    1.7170430269641583E+00    2.9159506234345898E+01
Au    1.4722202192722367E+00    4.2888791218139106E+00    2.9160249737914029E+01
Au    4.4150651509296726E+00    4.2713444502731450E+00    2.9185976711283910E+01
Au    7.3694038615978332E+00    4.1731019754209147E+00    2.9149653955046389E+01
Au    1.0442474531427637E+01    4.1731019751945970E+00    2.9149653950923447E+01
Au    1.3396813244870140E+01    4.2713444483704235E+00    2.9185976712696394E+01
Au    1.6339658177983036E+01    4.2888791192729707E+00    2.9160249736765401E+01
Au    9.4507164471686488E-10    6.8444773684984810E+00    2.9158966993416637E+01
Au    2.9190300807582177E+00    6.8570284642780708E+00    2.9169508879499499E+01
Au    5.8203915120611738E+00    6.8744706191088438E+00    2.9145974054367418E+01
Au    8.9059391959213983E+00    6.8655538183020877E+00    2.9320344591244950E+01
Au    1.1991486886585577E+01    6.8744706236493993E+00    2.9145974058350355E+01
Au    1.4892848320438825E+01    6.8570284589620405E+00    2.9169508879551746E+01
Au    1.4689336233726724E+00    9.4261921942415743E+00    2.9152880740705836E+01
Au    4.4044323217118926E+00    9.4532317646744275E+00    2.9159484438202188E+01
Au    7.3493717526754958E+00    9.5372444324922103E+00    2.9142697794035076E+01
Au    1.0462506651306425E+01    9.5372444277952582E+00    2.9142697795664137E+01
Au    1.3407446081262187E+01    9.4532317601406479E+00    2.9159484436334907E+01
Au    1.6342944777948080E+01    9.4261921921052902E+00    2.9152880742634864E+01
Au    4.1096409980566696E-09    1.1989452540815066E+01    2.9147614723205518E+01
Au    2.9507224668004923E+00    1.2007943311390370E+01    2.9157325782064227E+01
Au    5.9086377044798200E+00    1.2047434054151939E+01    2.9172990088297244E+01
Au    8.9059392041934515E+00    1.2049879258741264E+01    2.9194414362544887E+01
Au    1.1903240698869132E+01    1.2047434055534982E+01    2.9172990087001168E+01
Au    1.4861155935366902E+01    1.2007943307163371E+01    2.9157325776271875E+01
Au    1.4827588484729786E+00    1.4572210298190724E+01    2.9152389423356581E+01
Au    4.4481055911046310E+00    1.4578644336835954E+01    2.9161132219296658E+01
Au    7.4178597360309233E+00    1.4569182999169985E+01    2.9171012901684279E+01
Au    1.0394018665120184E+01    1.4569183000151561E+01    2.9171012899328232E+01
Au    1.3363772809506466E+01    1.4578644339615199E+01    2.9161132216641157E+01
Au    1.6329119552496206E+01    1.4572210299840652E+01    2.9152389422659745E+01
Au    3.2156195921302214E-09    1.1655345573203866E-02    3.1596659560118077E+01
Au    2.9693129346218372E+00    3.9595945686474645E-03    3.1602302974458905E+01
Au    5.9321650802395549E+00   -1.2076313501993750E-02    3.1626459698138571E+01
Au    8.9059392005824218E+00    5.0650597738176525E-03    3.1619076964958658E+01
Au    1.1879713320608325E+01   -1.2076311414071747E-02    3.1626459696373697E+01
Au    1.4842565464244899E+01    3.9595932620552238E-03    3.1602302963697557E+01
Au    1.4817374477426952E+00    2.5820484187515986E+00    3.1606713437094854E+01
Au    4.4465141723388006E+00    2.5797655730469184E+00    3.1629688576509029E+01
Au    7.4185193071920228E+00    2.5776143249347547E+00    3.1616674937659095E+01
Au    1.0393359091380637E+01    2.5776143236014732E+00    3.1616674935505980E+01
Au    1.3365364228166618E+01    2.5797655737279599E+00    3.1629688571358447E+01
Au    1.6330140952823470E+01    2.5820484196943054E+00    3.1606713434714827E+01
Au    1.6440543758268012E-09    5.1601117129567280E+00    3.1610493672479073E+01
Au    2.9752283028810305E+00    5.1462681027853394E+00    3.1630822274026205E+01
Au    5.9450729019840836E+00    5.1453449406558622E+00    3.1591045902013327E+01
Au    8.9059391992838588E+00    5.1158807454288535E+00    3.1614411053702256E+01
Au    1.1866805493326400E+01    5.1453449386869448E+00    3.1591045902054333E+01
Au    1.4836650094938047E+01    5.1462681011871760E+00    3.1630822295371757E+01
Au    1.4748049629649387E+00    7.7229024672894182E+00    3.1621771038612064E+01
Au    4.4613488738713265E+00    7.7088280100304454E+00    3.1615327247790887E+01
Au    7.4027656153901455E+00    7.7215477897279365E+00    3.1619196553060338E+01
Au    1.0409112780808989E+01    7.7215477873982090E+00    3.1619196551976099E+01
Au    1.3350529526489156E+01    7.7088280085324543E+00    3.1615327248749594E+01
Au    1.6337073433754117E+01    7.7229024667788027E+00    3.1621771029325707E+01
Au    2.2634379123226944E-09    1.0292541187359998E+01    3.1610870255879899E+01
Au    2.9719551979579886E+00    1.0279474293888992E+01    3.1610585153495204E+01
Au    5.9411218494278950E+00    1.0278163865196021E+01    3.1615066001691662E+01
Au    8.9059392014240455E+00    1.0273061160099264E+01    3.1583814705408653E+01
Au    1.1870756553039969E+01    1.0278163866047402E+01    3.1615065998482557E+01
Au    1.4839923204008301E+01    1.0279474292131237E+01    3.1610585146299513E+01
Au    1.4764030354311646E+00    1.2855343547777807E+01    3.1602591581886593E+01
Au    4.4391719759537329E+00    1.2860636362312990E+01    3.1618811346849931E+01
Au    7.4233831863882216E+00    1.2849099943814956E+01    3.1635856283749824E+01
Au    1.0388495216446580E+01    1.2849099943030751E+01    3.1635856284681783E+01
Au    1.3372706426517034E+01    1.2860636362254596E+01    3.1618811343118036E+01
Au    1.6335475364072849E+01    1.2855343548726003E+01    3.1602591578538249E+01
     &END COORD
     &KIND Au
       BASIS_SET TZVP-MOLOPT-SR-GTH-q11
       ELEMENT Au
       POTENTIAL GTH-PBE-q11
       &POTENTIAL
1 0 10
0.5900000000000000E+00 1  0.1051717881000000E+02
3
0.5438473300000000E+00 2  0.5786811030000000E+01 -0.2250679660000000E+01
0.2905614950000000E+01
0.6091729800000000E+00 2  0.4284048730000000E+01 -0.4071285200000000E+01
0.4817209620000000E+01
0.4373092200000000E+00 2 -0.7403281240000000E+01  0.3010193070000000E+01
-0.3413238110000000E+01
       &END POTENTIAL
     &END KIND
     &TOPOLOGY
       COORD_FILE_NAME junction_65.xyz
       COORD_FILE_FORMAT  XYZ
       NUMBER_OF_ATOMS  193
       MULTIPLE_UNIT_CELL  1 1 1
     &END TOPOLOGY
   &END SUBSYS
   &PRINT
     &TOTAL_NUMBERS  ON
     &END TOTAL_NUMBERS
   &END PRINT
 &END FORCE_EVAL
