 # Version information for this restart file 
 # current date 2022-05-08 01:24:58.464
 # current working dir /rds/general/user/jj1921/home/junction/ortho/cell_65
 # Program compiled at                              Thu 12 Jul 13:52:12 BST 2018
 # Program compiled on                                      build-2.hpc.ic.ac.uk
 # Program compiled for                                       Linux-x86-64-intel
 # Source code revision number                                         svn:18464
 &GLOBAL
   PRINT_LEVEL  MEDIUM
   PROJECT_NAME Au_junction
   RUN_TYPE  CELL_OPT
 &END GLOBAL
 &MOTION
   &CELL_OPT
     OPTIMIZER  BFGS
     STEP_START_VAL  180
     TYPE  DIRECT_CELL_OPT
     KEEP_ANGLES  T
     KEEP_SYMMETRY  T
     CONSTRAINT  XY
   &END CELL_OPT
   &CONSTRAINT
     &FIXED_ATOMS
       COMPONENTS_TO_FIX  XYZ
       LIST  1..36
     &END FIXED_ATOMS
   &END CONSTRAINT
   &PRINT
     &TRAJECTORY  SILENT
       &EACH
         CELL_OPT  1
       &END EACH
     &END TRAJECTORY
   &END PRINT
 &END MOTION
 &FORCE_EVAL
   METHOD  QS
   STRESS_TENSOR  ANALYTICAL
   &DFT
     BASIS_SET_FILE_NAME /rds/general/user/jj1921/home/BASIS_COM_MOLOPT_GTH
     POTENTIAL_FILE_NAME /rds/general/user/jj1921/home/GTH_POTENTIALS
     &SCF
       MAX_SCF  500
       EPS_SCF     9.9999999999999995E-08
       CHOLESKY  INVERSE
       SCF_GUESS  ATOMIC
       ADDED_MOS  20
       &DIAGONALIZATION  T
         ALGORITHM  STANDARD
       &END DIAGONALIZATION
       &SMEAR  T
         METHOD  FERMI_DIRAC
         ELECTRONIC_TEMPERATURE     3.0000000000000000E+02
       &END SMEAR
       &MIXING  T
         METHOD  BROYDEN_MIXING
         ALPHA     4.0000000000000002E-01
         BETA     5.0000000000000000E-01
         NBUFFER  8
       &END MIXING
     &END SCF
     &QS
       EPS_DEFAULT     1.0000000000000000E-14
       METHOD  GPW
     &END QS
     &MGRID
       NGRIDS  4
       CUTOFF     5.0000000000000000E+02
       REL_CUTOFF     4.0000000000000000E+01
     &END MGRID
     &XC
       DENSITY_CUTOFF     1.0000000000000000E-10
       GRADIENT_CUTOFF     1.0000000000000000E-10
       TAU_CUTOFF     1.0000000000000000E-10
       &XC_FUNCTIONAL  NO_SHORTCUT
         &PBE  T
         &END PBE
       &END XC_FUNCTIONAL
     &END XC
     &KPOINTS
       SCHEME MONKHORST-PACK 4 4 1
       FULL_GRID  T
     &END KPOINTS
   &END DFT
   &SUBSYS
     &CELL
       A     1.7811878396732908E+01    0.0000000000000000E+00    0.0000000000000000E+00
       B     0.0000000000000000E+00    1.5425539180689926E+01    0.0000000000000000E+00
       C     0.0000000000000000E+00    0.0000000000000000E+00    3.2281209845738630E+01
       PERIODIC  XYZ
       MULTIPLE_UNIT_CELL  1 1 1
       SYMMETRY  ORTHORHOMBIC
     &END CELL
     &COORD
Au    1.4843231999999993E+00    8.5697440000000025E-01    0.0000000000000000E+00
Au    4.4529695999999976E+00    8.5697440000000025E-01    0.0000000000000000E+00
Au    7.4216159999999967E+00    8.5697440000000025E-01    0.0000000000000000E+00
Au    1.0390262400000001E+01    8.5697440000000025E-01    0.0000000000000000E+00
Au    1.3358908799999995E+01    8.5697440000000025E-01    0.0000000000000000E+00
Au    1.6327555199999992E+01    8.5697440000000025E-01    0.0000000000000000E+00
Au    0.0000000000000000E+00    3.4278976000000010E+00    0.0000000000000000E+00
Au    2.9686463999999986E+00    3.4278976000000010E+00    0.0000000000000000E+00
Au    5.9372927999999972E+00    3.4278976000000010E+00    0.0000000000000000E+00
Au    8.9059391999999953E+00    3.4278976000000010E+00    0.0000000000000000E+00
Au    1.1874585599999994E+01    3.4278976000000010E+00    0.0000000000000000E+00
Au    1.4843231999999993E+01    3.4278976000000010E+00    0.0000000000000000E+00
Au    1.4843231999999993E+00    5.9988207899999999E+00    0.0000000000000000E+00
Au    4.4529695999999976E+00    5.9988207899999999E+00    0.0000000000000000E+00
Au    7.4216159999999967E+00    5.9988207899999999E+00    0.0000000000000000E+00
Au    1.0390262400000001E+01    5.9988207899999999E+00    0.0000000000000000E+00
Au    1.3358908799999995E+01    5.9988207899999999E+00    0.0000000000000000E+00
Au    1.6327555199999992E+01    5.9988207899999999E+00    0.0000000000000000E+00
Au    0.0000000000000000E+00    8.5697439900000028E+00    0.0000000000000000E+00
Au    2.9686463999999986E+00    8.5697439900000028E+00    0.0000000000000000E+00
Au    5.9372927999999972E+00    8.5697439900000028E+00    0.0000000000000000E+00
Au    8.9059391999999953E+00    8.5697439900000028E+00    0.0000000000000000E+00
Au    1.1874585599999994E+01    8.5697439900000028E+00    0.0000000000000000E+00
Au    1.4843231999999993E+01    8.5697439900000028E+00    0.0000000000000000E+00
Au    1.4843231999999993E+00    1.1140667190000002E+01    0.0000000000000000E+00
Au    4.4529695999999976E+00    1.1140667190000002E+01    0.0000000000000000E+00
Au    7.4216159999999967E+00    1.1140667190000002E+01    0.0000000000000000E+00
Au    1.0390262400000001E+01    1.1140667190000002E+01    0.0000000000000000E+00
Au    1.3358908799999995E+01    1.1140667190000002E+01    0.0000000000000000E+00
Au    1.6327555199999992E+01    1.1140667190000002E+01    0.0000000000000000E+00
Au    0.0000000000000000E+00    1.3711590380000011E+01    0.0000000000000000E+00
Au    2.9686463999999986E+00    1.3711590380000011E+01    0.0000000000000000E+00
Au    5.9372927999999972E+00    1.3711590380000011E+01    0.0000000000000000E+00
Au    8.9059391999999953E+00    1.3711590380000011E+01    0.0000000000000000E+00
Au    1.1874585599999994E+01    1.3711590380000011E+01    0.0000000000000000E+00
Au    1.4843231999999993E+01    1.3711590380000011E+01    0.0000000000000000E+00
Au    5.4294406342298558E-07    1.7066203106634799E+00    2.4111220326952538E+00
Au    2.9552088064170365E+00    1.7074745451164013E+00    2.4077105795161837E+00
Au    5.9225441717061420E+00    1.7102570864192694E+00    2.4070169744730308E+00
Au    8.9059394590100389E+00    1.7279082133327237E+00    2.4182875608693237E+00
Au    1.1889335108751240E+01    1.7102564857072955E+00    2.4070165002424129E+00
Au    1.4856670490054977E+01    1.7074739627612354E+00    2.4077111308966339E+00
Au    1.4770372110554995E+00    4.2762857371721124E+00    2.4061839057101992E+00
Au    4.4450041383508445E+00    4.2808086692418135E+00    2.4285021460701293E+00
Au    7.4061674326514622E+00    4.2846853517023140E+00    2.4177442812348171E+00
Au    1.0405711967443139E+01    4.2846860459627445E+00    2.4177468832840430E+00
Au    1.3366875220656627E+01    4.2808083038243447E+00    2.4285004207255310E+00
Au    1.6334843220842906E+01    4.2762859087364822E+00    2.4061842283085135E+00
Au    9.6299374005889344E-07    6.8502847774390556E+00    2.4056905346946675E+00
Au    2.9598413334082232E+00    6.8476650570355266E+00    2.4071390824417844E+00
Au    5.9294237132639358E+00    6.8443107171431183E+00    2.4210969253132260E+00
Au    8.9059395136675867E+00    6.8561339667942454E+00    2.4800538002444688E+00
Au    1.1882454678430321E+01    6.8443119876209861E+00    2.4211005512983319E+00
Au    1.4852038637734038E+01    6.8476642744381317E+00    2.4071388993938805E+00
Au    1.4879742776722389E+00    9.4222495846117003E+00    2.4100120585699623E+00
Au    4.4604799950784262E+00    9.4214603883915284E+00    2.4143504986733575E+00
Au    7.4279535621620294E+00    9.4352725100654062E+00    2.4256245659958453E+00
Au    1.0383926989573006E+01    9.4352712401709837E+00    2.4256259380575225E+00
Au    1.3351399346247847E+01    9.4214610689796423E+00    2.4143521146488243E+00
Au    1.6323904400648043E+01    9.4222497063981763E+00    2.4100112089399013E+00
Au   -1.9463386586443795E-07    1.1988745167437967E+01    2.4124597590834091E+00
Au    2.9696300724297928E+00    1.1994444077099581E+01    2.4092022472570243E+00
Au    5.9378715060566059E+00    1.2007003646453718E+01    2.4066679522506123E+00
Au    8.9059398671842445E+00    1.1995125240229552E+01    2.4351882960154265E+00
Au    1.1874007356703032E+01    1.2007004070848323E+01    2.4066680330529944E+00
Au    1.4842248884820220E+01    1.1994444806177325E+01    2.4092011815804599E+00
Au    1.4798611432341129E+00    1.4561047746299387E+01    2.4105820288394857E+00
Au    4.4452563015351849E+00    1.4569261000089913E+01    2.4074402280827365E+00
Au    7.4221426439197584E+00    1.4578541335585433E+01    2.4039886132950654E+00
Au    1.0389735506160656E+01    1.4578541921744014E+01    2.4039885647599002E+00
Au    1.3366623093762422E+01    1.4569261039251336E+01    2.4074395968655242E+00
Au    1.6332017690871979E+01    1.4561047699456898E+01    2.4105812939188609E+00
Au    7.8208111565435740E-07   -1.2359514214026731E-02    4.8684108816445191E+00
Au    2.9400499924751746E+00   -1.6334396613757123E-02    4.8714730625337754E+00
Au    5.9013027880179729E+00   -2.5042420507599240E-02    4.8680065309451939E+00
Au    8.9059395622008548E+00   -1.0027880124469261E-02    4.8578294971769651E+00
Au    1.1910577058345824E+01   -2.5042278315194660E-02    4.8680056469859680E+00
Au    1.4871829414235895E+01   -1.6334205879702288E-02    4.8714740695972623E+00
Au    1.4616430598332284E+00    2.5520396763850317E+00    4.8742736368351993E+00
Au    4.3923534221184379E+00    2.5181596833826312E+00    4.8644919871151604E+00
Au    7.3588011720089899E+00    2.4759766878417158E+00    4.8562495671865626E+00
Au    1.0453079017970664E+01    2.4759770397575429E+00    4.8562497159901037E+00
Au    1.3419525492113721E+01    2.5181609499993396E+00    4.8644928974503339E+00
Au    1.6350236987971453E+01    2.5520393720249621E+00    4.8742721030215144E+00
Au    1.5255650626038411E-06    5.1338223850373215E+00    4.8692505626248987E+00
Au    2.9034883450579114E+00    5.1239015824653187E+00    4.8647388284360646E+00
Au    5.8062149808428067E+00    5.0637928308186311E+00    4.9020440929621731E+00
Au    8.9059405088891062E+00    4.9196162422975931E+00    4.7827827024558163E+00
Au    1.2005663012685440E+01    5.0637926498518153E+00    4.9020479500747438E+00
Au    1.4908390573577606E+01    5.1239013454204763E+00    4.8647384826018261E+00
Au    1.4528549876049366E+00    7.7184842834823382E+00    4.8672197002616180E+00
Au    4.3427987095627767E+00    7.7179751102929970E+00    4.8573107518769607E+00
Au    7.2319308676219007E+00    7.8053383179956102E+00    4.7997896768393975E+00
Au    1.0579948752029821E+01    7.8053384884811923E+00    4.7997934334122272E+00
Au    1.3469084187885706E+01    7.7179762070386770E+00    4.8573110571711595E+00
Au    1.6359027525504803E+01    7.7184840630813270E+00    4.8672172042288473E+00
Au    6.7677657422169379E-07    1.0288247377903987E+01    4.8607111023671274E+00
Au    2.9390525379825077E+00    1.0301354841502445E+01    4.8593640123892872E+00
Au    5.8758274578971585E+00    1.0365845294316125E+01    4.8544278032379333E+00
Au    8.9059378353703451E+00    1.0404275874580986E+01    4.9228159785584147E+00
Au    1.1936055660050723E+01    1.0365848088610440E+01    4.8544281611480828E+00
Au    1.4872829328847114E+01    1.0301356366067656E+01    4.8593653955917571E+00
Au    1.4742164995064773E+00    1.2853552565337120E+01    4.8632850423156331E+00
Au    4.4206746730791933E+00    1.2874771762479606E+01    4.8678484993360263E+00
Au    7.4009554768085151E+00    1.2900507105886655E+01    4.8576455744523983E+00
Au    1.0410924159157444E+01    1.2900507178439884E+01    4.8576445148627325E+00
Au    1.3391206564595972E+01    1.2874774245635844E+01    4.8678487002323534E+00
Au    1.6337662489947924E+01    1.2853553260198479E+01    4.8632853257504420E+00
Au    7.4225353887063710E+00    5.9644119653334648E+00    6.9412331807548648E+00
Au    1.0389326461040765E+01    5.9644387610505225E+00    6.9412488556219598E+00
Au    8.9059494681754163E+00    8.5153585643027832E+00    6.9562164442915426E+00
Au    8.9058625365519291E+00    6.7501881496772222E+00    9.1152275169853958E+00
Au    8.9049214041438347E+00    6.5151470663348778E+00    1.1717143236769488E+01
Au    8.9078935923088824E+00    8.1829462070654095E+00    1.3736981505548959E+01
Au    8.9041852448448662E+00    7.2227251272205324E+00    1.6171329419414938E+01
Au    8.9074448826703669E+00    5.7733417890392129E+00    1.8339242377282059E+01
Au    8.9053033989000401E+00    7.2359469194024930E+00    2.0502830528329159E+01
Au    8.9059158588966749E+00    6.9032497702788946E+00    2.3106742231945990E+01
Au    8.9059421571241995E+00    5.1711673054507736E+00    2.5292105343454939E+01
Au    7.4358193277244995E+00    7.7175062548672528E+00    2.5285476040571812E+01
Au    1.0376064508689995E+01    7.7174999082325328E+00    2.5285485368291283E+01
Au   -4.8080525977690660E-07    1.7066509519537347E+00    2.7420687856712195E+01
Au    2.9442351345178177E+00    1.7055401087160613E+00    2.7416083360205892E+01
Au    5.8938788392237864E+00    1.6700176218933027E+00    2.7423499391565127E+01
Au    8.9059380086930560E+00    1.6664078797431456E+00    2.7408936738720765E+01
Au    1.1917998956572587E+01    1.6700160253297840E+00    2.7423499095911797E+01
Au    1.4867645501471399E+01    1.7055364306990810E+00    2.7416083943098020E+01
Au    1.4692831316241013E+00    4.2754127419405616E+00    2.7420372048957990E+01
Au    4.4051686975222522E+00    4.2610311616830625E+00    2.7431737709020318E+01
Au    7.3582971946592037E+00    4.1770396716568579E+00    2.7395144221431206E+01
Au    1.0453579501835007E+01    4.1770410392615620E+00    2.7395139290713391E+01
Au    1.3406712419562480E+01    4.2610253929222930E+00    2.7431734251409516E+01
Au    1.6342597006437213E+01    4.2754122308717699E+00    2.7420375848915540E+01
Au    1.3407638129079176E-06    6.8587257176232033E+00    2.7417703649126292E+01
Au    2.9126612168803900E+00    6.8538570387735662E+00    2.7420578826829711E+01
Au    5.8157879878996654E+00    6.8682085311035772E+00    2.7394059301000187E+01
Au    8.9059367534089287E+00    6.8708991651318279E+00    2.7603237282487335E+01
Au    1.1996093538225237E+01    6.8681999814017640E+00    2.7394064639857678E+01
Au    1.4899219583822418E+01    6.8538570590260077E+00    2.7420579552458083E+01
Au    1.4658991129184846E+00    9.4370964554614556E+00    2.7412786483210166E+01
Au    4.3979607757098478E+00    9.4605528224820183E+00    2.7400860964251255E+01
Au    7.3463075336642936E+00    9.5425665870658722E+00    2.7395602449868086E+01
Au    1.0465565800854982E+01    9.5425765886824419E+00    2.7395607807037806E+01
Au    1.3413913889331345E+01    9.4605520682264412E+00    2.7400864563619642E+01
Au    1.6345978832504628E+01    9.4370979924808953E+00    2.7412788908559925E+01
Au   -1.2061570165743903E-08    1.2003033983833577E+01    2.7414251011155674E+01
Au    2.9458037125539578E+00    1.2012133514066829E+01    2.7414902592457384E+01
Au    5.9005687406193221E+00    1.2056366602872169E+01    2.7423683839650831E+01
Au    8.9059359939277787E+00    1.2050286874060374E+01    2.7436387112230008E+01
Au    1.1911309722259475E+01    1.2056368348323105E+01    2.7423683373079822E+01
Au    1.4866074647414928E+01    1.2012133632744794E+01    2.7414902528435611E+01
Au    1.4743315277478519E+00    1.4565813404221755E+01    2.7417603567551708E+01
Au    4.4238226369649096E+00    1.4574089813504887E+01    2.7417848962671112E+01
Au    7.4094648825211271E+00    1.4576243811415885E+01    2.7422601970580743E+01
Au    1.0402412473377533E+01    1.4576243262213456E+01    2.7422603589972791E+01
Au    1.3388056119767434E+01    1.4574089272909641E+01    2.7417849393914803E+01
Au    1.6337546305010463E+01    1.4565814131724165E+01    2.7417601537808110E+01
Au   -4.7294510725294288E-07    1.7952807358322747E-03    2.9868932057927658E+01
Au    2.9635158993257931E+00    4.4367122136772371E-03    2.9871184937604777E+01
Au    5.9351492057798252E+00   -6.2395949326161798E-03    2.9877343579921014E+01
Au    8.9059392669433279E+00    4.1995125647089019E-03    2.9869868115226922E+01
Au    1.1876728786214857E+01   -6.2401556360168493E-03    2.9877344438563956E+01
Au    1.4848362352906246E+01    4.4354037119061678E-03    2.9871185972936555E+01
Au    1.4842704133156375E+00    2.5757029605750743E+00    2.9870104311462160E+01
Au    4.4515786321600768E+00    2.5694871551688401E+00    2.9873075430590934E+01
Au    7.4149211227625971E+00    2.5688828995137061E+00    2.9861429072782208E+01
Au    1.0396957524145629E+01    2.5688833859901581E+00    2.9861425670664133E+01
Au    1.3360299446984312E+01    2.5694861250780292E+00    2.9873075027388115E+01
Au    1.6327608136525665E+01    2.5757016511207347E+00    2.9870105838648140E+01
Au    7.4859752934675491E-07    5.1477049898204719E+00    2.9872716550758827E+01
Au    2.9679544005697811E+00    5.1458165824661508E+00    2.9873025742204835E+01
Au    5.9414836431810167E+00    5.1459986915041549E+00    2.9828558283206732E+01
Au    8.9059394236355853E+00    5.1209689406895240E+00    2.9871186350524603E+01
Au    1.1870394383087042E+01    5.1459952149284707E+00    2.9828556963991254E+01
Au    1.4843923122971733E+01    5.1458165641097686E+00    2.9873025902730909E+01
Au    1.4797900222362235E+00    7.7194316488736412E+00    2.9874049461508402E+01
Au    4.4458617682199693E+00    7.7119052530953747E+00    2.9862024894115631E+01
Au    7.4022945525683239E+00    7.7255595417029674E+00    2.9875566420669919E+01
Au    1.0409584593791930E+01    7.7255594604119260E+00    2.9875565846288296E+01
Au    1.3366016347520349E+01    7.7119051651300285E+00    2.9862023756968330E+01
Au    1.6332089105276662E+01    7.7194307914908347E+00    2.9874049545157657E+01
Au    4.7149873416706388E-07    1.0289131596603841E+01    2.9871468191201998E+01
Au    2.9714448016511481E+00    1.0281734988864500E+01    2.9865054846314067E+01
Au    5.9332358310793420E+00    1.0292567078833930E+01    2.9862963646107541E+01
Au    8.9059361870458833E+00    1.0278730184774876E+01    2.9830471155810663E+01
Au    1.1878642327264840E+01    1.0292566931328041E+01    2.9862964085353738E+01
Au    1.4840434746270112E+01    1.0281736024917342E+01    2.9865056227280544E+01
Au    1.4801865437719983E+00    1.2855109141024302E+01    2.9871186035434938E+01
Au    4.4411462991779853E+00    1.2858274915090716E+01    2.9874780097323249E+01
Au    7.4182556901113408E+00    1.2852696675676860E+01    2.9874764466080933E+01
Au    1.0393621609308683E+01    1.2852695440686315E+01    2.9874764253087449E+01
Au    1.3370731628815919E+01    1.2858274906193119E+01    2.9874780702459923E+01
Au    1.6331691990890572E+01    1.2855108819859719E+01    2.9871186094033884E+01
     &END COORD
     &KIND Au
       BASIS_SET TZVP-MOLOPT-SR-GTH-q11
       ELEMENT Au
       POTENTIAL GTH-PBE-q11
       &POTENTIAL
1 0 10
0.5900000000000000E+00 1  0.1051717881000000E+02
3
0.5438473300000000E+00 2  0.5786811030000000E+01 -0.2250679660000000E+01
0.2905614950000000E+01
0.6091729800000000E+00 2  0.4284048730000000E+01 -0.4071285200000000E+01
0.4817209620000000E+01
0.4373092200000000E+00 2 -0.7403281240000000E+01  0.3010193070000000E+01
-0.3413238110000000E+01
       &END POTENTIAL
     &END KIND
     &TOPOLOGY
       COORD_FILE_NAME junction_65.xyz
       COORD_FILE_FORMAT  XYZ
       NUMBER_OF_ATOMS  193
       MULTIPLE_UNIT_CELL  1 1 1
     &END TOPOLOGY
   &END SUBSYS
   &PRINT
     &TOTAL_NUMBERS  ON
     &END TOTAL_NUMBERS
   &END PRINT
 &END FORCE_EVAL
