 # Version information for this restart file 
 # current date 2022-05-01 18:28:05.580
 # current working dir /rds/general/user/jj1921/home/junction/ortho/cell_65
 # Program compiled at                              Thu 12 Jul 13:52:12 BST 2018
 # Program compiled on                                      build-2.hpc.ic.ac.uk
 # Program compiled for                                       Linux-x86-64-intel
 # Source code revision number                                         svn:18464
 &GLOBAL
   PRINT_LEVEL  MEDIUM
   PROJECT_NAME Au_junction
   RUN_TYPE  CELL_OPT
 &END GLOBAL
 &MOTION
   &CELL_OPT
     OPTIMIZER  BFGS
     STEP_START_VAL  76
     TYPE  DIRECT_CELL_OPT
     KEEP_ANGLES  T
     KEEP_SYMMETRY  T
     CONSTRAINT  XY
   &END CELL_OPT
   &CONSTRAINT
     &FIXED_ATOMS
       COMPONENTS_TO_FIX  XYZ
       LIST  1..36
     &END FIXED_ATOMS
   &END CONSTRAINT
   &PRINT
     &TRAJECTORY  SILENT
       &EACH
         CELL_OPT  1
       &END EACH
     &END TRAJECTORY
   &END PRINT
 &END MOTION
 &FORCE_EVAL
   METHOD  QS
   STRESS_TENSOR  ANALYTICAL
   &DFT
     BASIS_SET_FILE_NAME /rds/general/user/jj1921/home/BASIS_COM_MOLOPT_GTH
     POTENTIAL_FILE_NAME /rds/general/user/jj1921/home/GTH_POTENTIALS
     &SCF
       MAX_SCF  500
       EPS_SCF     9.9999999999999995E-08
       CHOLESKY  INVERSE
       SCF_GUESS  ATOMIC
       ADDED_MOS  20
       &DIAGONALIZATION  T
         ALGORITHM  STANDARD
       &END DIAGONALIZATION
       &SMEAR  T
         METHOD  FERMI_DIRAC
         ELECTRONIC_TEMPERATURE     3.0000000000000000E+02
       &END SMEAR
       &MIXING  T
         METHOD  BROYDEN_MIXING
         ALPHA     4.0000000000000002E-01
         BETA     5.0000000000000000E-01
         NBUFFER  8
       &END MIXING
     &END SCF
     &QS
       EPS_DEFAULT     1.0000000000000000E-14
       METHOD  GPW
     &END QS
     &MGRID
       NGRIDS  4
       CUTOFF     5.0000000000000000E+02
       REL_CUTOFF     4.0000000000000000E+01
     &END MGRID
     &XC
       DENSITY_CUTOFF     1.0000000000000000E-10
       GRADIENT_CUTOFF     1.0000000000000000E-10
       TAU_CUTOFF     1.0000000000000000E-10
       &XC_FUNCTIONAL  NO_SHORTCUT
         &PBE  T
         &END PBE
       &END XC_FUNCTIONAL
     &END XC
     &KPOINTS
       SCHEME MONKHORST-PACK 4 4 1
       FULL_GRID  T
     &END KPOINTS
   &END DFT
   &SUBSYS
     &CELL
       A     1.7811878396732901E+01    0.0000000000000000E+00    0.0000000000000000E+00
       B     0.0000000000000000E+00    1.5425539180689929E+01    0.0000000000000000E+00
       C     0.0000000000000000E+00    0.0000000000000000E+00    3.3314746744102237E+01
       PERIODIC  XYZ
       MULTIPLE_UNIT_CELL  1 1 1
       SYMMETRY  ORTHORHOMBIC
     &END CELL
     &COORD
Au    1.4843231999999995E+00    8.5697439999999980E-01    0.0000000000000000E+00
Au    4.4529695999999985E+00    8.5697439999999980E-01    0.0000000000000000E+00
Au    7.4216159999999975E+00    8.5697439999999980E-01    0.0000000000000000E+00
Au    1.0390262399999999E+01    8.5697439999999980E-01    0.0000000000000000E+00
Au    1.3358908799999998E+01    8.5697439999999980E-01    0.0000000000000000E+00
Au    1.6327555199999995E+01    8.5697439999999980E-01    0.0000000000000000E+00
Au    0.0000000000000000E+00    3.4278975999999992E+00    0.0000000000000000E+00
Au    2.9686463999999990E+00    3.4278975999999992E+00    0.0000000000000000E+00
Au    5.9372927999999980E+00    3.4278975999999992E+00    0.0000000000000000E+00
Au    8.9059391999999971E+00    3.4278975999999992E+00    0.0000000000000000E+00
Au    1.1874585599999996E+01    3.4278975999999992E+00    0.0000000000000000E+00
Au    1.4843231999999995E+01    3.4278975999999992E+00    0.0000000000000000E+00
Au    1.4843231999999995E+00    5.9988207899999981E+00    0.0000000000000000E+00
Au    4.4529695999999985E+00    5.9988207899999981E+00    0.0000000000000000E+00
Au    7.4216159999999975E+00    5.9988207899999981E+00    0.0000000000000000E+00
Au    1.0390262399999999E+01    5.9988207899999981E+00    0.0000000000000000E+00
Au    1.3358908799999998E+01    5.9988207899999981E+00    0.0000000000000000E+00
Au    1.6327555199999995E+01    5.9988207899999981E+00    0.0000000000000000E+00
Au    0.0000000000000000E+00    8.5697439899999974E+00    0.0000000000000000E+00
Au    2.9686463999999990E+00    8.5697439899999974E+00    0.0000000000000000E+00
Au    5.9372927999999980E+00    8.5697439899999974E+00    0.0000000000000000E+00
Au    8.9059391999999971E+00    8.5697439899999974E+00    0.0000000000000000E+00
Au    1.1874585599999996E+01    8.5697439899999974E+00    0.0000000000000000E+00
Au    1.4843231999999995E+01    8.5697439899999974E+00    0.0000000000000000E+00
Au    1.4843231999999995E+00    1.1140667189999997E+01    0.0000000000000000E+00
Au    4.4529695999999985E+00    1.1140667189999997E+01    0.0000000000000000E+00
Au    7.4216159999999975E+00    1.1140667189999997E+01    0.0000000000000000E+00
Au    1.0390262399999999E+01    1.1140667189999997E+01    0.0000000000000000E+00
Au    1.3358908799999998E+01    1.1140667189999997E+01    0.0000000000000000E+00
Au    1.6327555199999995E+01    1.1140667189999997E+01    0.0000000000000000E+00
Au    0.0000000000000000E+00    1.3711590380000001E+01    0.0000000000000000E+00
Au    2.9686463999999990E+00    1.3711590380000001E+01    0.0000000000000000E+00
Au    5.9372927999999980E+00    1.3711590380000001E+01    0.0000000000000000E+00
Au    8.9059391999999971E+00    1.3711590380000001E+01    0.0000000000000000E+00
Au    1.1874585599999996E+01    1.3711590380000001E+01    0.0000000000000000E+00
Au    1.4843231999999995E+01    1.3711590380000001E+01    0.0000000000000000E+00
Au    4.1013865892827152E-09    1.7215400004767591E+00    2.3964589686735844E+00
Au    2.9780056436999178E+00    1.7227137326667297E+00    2.3958828327977972E+00
Au    5.9431814002824899E+00    1.7194287805961790E+00    2.4023187402490946E+00
Au    8.9059391998243491E+00    1.7253531359343077E+00    2.4138464482424324E+00
Au    1.1868697001112627E+01    1.7194287807330395E+00    2.4023187396378129E+00
Au    1.4833872759070967E+01    1.7227137340079453E+00    2.3958828337224030E+00
Au    1.4961088489054575E+00    4.2866194444755896E+00    2.3925722767734330E+00
Au    4.4876753840534462E+00    4.2949828491406441E+00    2.4367404550092466E+00
Au    7.4278570245456130E+00    4.2988815349182126E+00    2.4489094774678901E+00
Au    1.0384021373131931E+01    4.2988815354428480E+00    2.4489094780921437E+00
Au    1.3324203015319542E+01    4.2949828491715403E+00    2.4367404475163261E+00
Au    1.6315769554452825E+01    4.2866194447776049E+00    2.3925722793101918E+00
Au    2.2759008321771375E-09    6.8608171466983805E+00    2.3962885060589749E+00
Au    2.9805293494125946E+00    6.8466295134557074E+00    2.3982002538587310E+00
Au    5.9547241982470407E+00    6.8435883762055418E+00    2.4417117233209207E+00
Au    8.9059392002555455E+00    6.8528008413070793E+00    2.5089495759284466E+00
Au    1.1857154201041126E+01    6.8435883775965705E+00    2.4417117243274311E+00
Au    1.4831349052440405E+01    6.8466295139566489E+00    2.3982002503032755E+00
Au    1.4932601000326677E+00    9.4265824882701033E+00    2.3969715867822301E+00
Au    4.4721632290444386E+00    9.4121087211393437E+00    2.4122930064939507E+00
Au    7.4353134276127255E+00    9.4158917461781950E+00    2.4416802329045333E+00
Au    1.0376564974076075E+01    9.4158917460531271E+00    2.4416802317250865E+00
Au    1.3339715173004048E+01    9.4121087230555034E+00    2.4122930068932877E+00
Au    1.6318618302723699E+01    9.4265824890627457E+00    2.3969715843066997E+00
Au    2.1347328321801575E-09    1.2003687320684323E+01    2.3966438732177187E+00
Au    2.9829920584844554E+00    1.1991786881838742E+01    2.4001011210359313E+00
Au    5.9494277776427191E+00    1.1994225888134299E+01    2.4013691266493309E+00
Au    8.9059392012483851E+00    1.1966076111920943E+01    2.4366756002815761E+00
Au    1.1862450625581037E+01    1.1994225889392320E+01    2.4013691271186719E+00
Au    1.4828886343038970E+01    1.1991786882276983E+01    2.4001011222328863E+00
Au    1.4898999017791135E+00    1.4573072933417915E+01    2.3950392735804442E+00
Au    4.4583691305668065E+00    1.4567123701092488E+01    2.4025385678866407E+00
Au    7.4286910922024534E+00    1.4567104962132062E+01    2.4012012095520276E+00
Au    1.0383187311228308E+01    1.4567104962783191E+01    2.4012012109123635E+00
Au    1.3353509272280601E+01    1.4567123702059488E+01    2.4025385688286249E+00
Au    1.6321978498620993E+01    1.4573072934318041E+01    2.3950392761165853E+00
Au    3.8175649544065583E-09   -1.2834427055605302E-03    4.8247468457559668E+00
Au    2.9549895231866734E+00   -8.2498815863885533E-04    4.8376585518405859E+00
Au    5.9210709408053690E+00   -1.9110941811525350E-02    4.8579313877168113E+00
Au    8.9059392027253264E+00   -8.2914434043247463E-03    4.8551219796945491E+00
Au    1.1890807463290722E+01   -1.9110939683604073E-02    4.8579313901932597E+00
Au    1.4856888878781989E+01   -8.2498678302374534E-04    4.8376585547579936E+00
Au    1.4700160333259418E+00    2.5627166772647723E+00    4.8366582109083271E+00
Au    4.4212490664246404E+00    2.5371334692893313E+00    4.8631693601403247E+00
Au    7.3797703730058295E+00    2.4890154805272426E+00    4.8626908200061765E+00
Au    1.0432108029163356E+01    2.4890154814024994E+00    4.8626908180708446E+00
Au    1.3390629335326853E+01    2.5371334718166962E+00    4.8631693594179488E+00
Au    1.6341862369528631E+01    2.5627166776660548E+00    4.8366582078605855E+00
Au    4.3240849152597478E-09    5.1351151915212681E+00    4.8322493767240058E+00
Au    2.9242717779435057E+00    5.1235531207321596E+00    4.8586052483948512E+00
Au    5.8418095618091996E+00    5.0833531933861336E+00    4.9706603910999112E+00
Au    8.9059391998611286E+00    4.9569441146595619E+00    4.8643838870394189E+00
Au    1.1970068837070691E+01    5.0833531928007556E+00    4.9706603842429038E+00
Au    1.4887606619026247E+01    5.1235531221647568E+00    4.8586052423113752E+00
Au    1.4601478337852194E+00    7.7102403264519914E+00    4.8447924450968252E+00
Au    4.3572382128367391E+00    7.7069495956908272E+00    4.8607815347013723E+00
Au    7.2531552533461889E+00    7.8129338929323060E+00    4.8492067445442411E+00
Au    1.0558723146169442E+01    7.8129338886962270E+00    4.8492067442780815E+00
Au    1.3454640189172876E+01    7.7069495976230415E+00    4.8607815292940808E+00
Au    1.6351730567061100E+01    7.7102403268467574E+00    4.8447924406050191E+00
Au    1.3183304948441461E-09    1.0285516164948758E+01    4.8260528046942852E+00
Au    2.9454656741228753E+00    1.0288898232931032E+01    4.8386546892814248E+00
Au    5.8757316281804126E+00    1.0363153592832672E+01    4.8590876914551178E+00
Au    8.9059392030028803E+00    1.0380678846485694E+01    4.9668323620225348E+00
Au    1.1936146775435466E+01    1.0363153592663135E+01    4.8590876930716433E+00
Au    1.4866412729939398E+01    1.0288898234340829E+01    4.8386546908049990E+00
Au    1.4798981829119577E+00    1.2856349266884811E+01    4.8252456920619426E+00
Au    4.4294449327294343E+00    1.2875548319101123E+01    4.8553587667849740E+00
Au    7.4107908311019486E+00    1.2887148558914136E+01    4.8624646376028418E+00
Au    1.0401087574181092E+01    1.2887148558576643E+01    4.8624646391218809E+00
Au    1.3382433472704077E+01    1.2875548321114582E+01    4.8553587710544281E+00
Au    1.6331980219010429E+01    1.2856349266000635E+01    4.8252456949046660E+00
Au    7.4183455401123704E+00    6.0226960350903491E+00    7.0360019240767819E+00
Au    1.0393532859908603E+01    6.0226960358740431E+00    7.0360019256864730E+00
Au    8.9059392048344357E+00    8.5387986351860654E+00    7.0534625077647339E+00
Au    8.9059391937259740E+00    6.7509928643934858E+00    9.2399443566548065E+00
Au    8.9059387742027489E+00    6.2360500363466143E+00    1.1820502419426207E+01
Au    8.9059403600788407E+00    7.5528870720762482E+00    1.4110292590811733E+01
Au    8.9059377221207203E+00    7.0719681326226285E+00    1.6712097593843620E+01
Au    8.9059401245268681E+00    6.0700740943016287E+00    1.9161631227506689E+01
Au    8.9059389736889436E+00    7.3319182640443614E+00    2.1451022760815018E+01
Au    8.9059391998044966E+00    6.9417789465333470E+00    2.4075536776537071E+01
Au    8.9059392036757252E+00    5.1744452057448802E+00    2.6257029624590579E+01
Au    7.4281262264789802E+00    7.6874995716717800E+00    2.6273784810772941E+01
Au    1.0383752184144857E+01    7.6874995734537777E+00    2.6273784809722933E+01
Au    8.8694683397170344E-10    1.7157299633605980E+00    2.8489720468085359E+01
Au    2.9487122453545678E+00    1.7135395193629559E+00    2.8472991773874636E+01
Au    5.8994176947963419E+00    1.6820842351997878E+00    2.8459251746142609E+01
Au    8.9059392017195016E+00    1.6679751508821827E+00    2.8436190921222902E+01
Au    1.1912460707928506E+01    1.6820842397955500E+00    2.8459251750315921E+01
Au    1.4863166156511152E+01    1.7135395173470027E+00    2.8472991774178109E+01
Au    1.4729564525276939E+00    4.2862968065851623E+00    2.8477523625555214E+01
Au    4.4164327560914138E+00    4.2724106970013684E+00    2.8468937849004153E+01
Au    7.3735700798914730E+00    4.1844256328650467E+00    2.8377279685454358E+01
Au    1.0438308318355757E+01    4.1844256334461107E+00    2.8377279685621563E+01
Au    1.3395445640862382E+01    4.2724106945871556E+00    2.8468937849622005E+01
Au    1.6338921948686192E+01    4.2862968109554043E+00    2.8477523626944386E+01
Au    1.4051028803156892E-09    6.8631689527494926E+00    2.8473580958062975E+01
Au    2.9143075613069782E+00    6.8595808805667300E+00    2.8462534117187786E+01
Au    5.8122995740805417E+00    6.8720174152110713E+00    2.8391794841744744E+01
Au    8.9059392024342596E+00    6.8647218645539789E+00    2.8583687438379766E+01
Au    1.1999578822603421E+01    6.8720174111107042E+00    2.8391794842084941E+01
Au    1.4897570839096863E+01    6.8595808872498383E+00    2.8462534115454226E+01
Au    1.4689613995353370E+00    9.4370933717075349E+00    2.8472403076357658E+01
Au    4.3964976742917123E+00    9.4587994686688930E+00    2.8432859244697340E+01
Au    7.3399412775495589E+00    9.5163105980482481E+00    2.8382850171336774E+01
Au    1.0471937124888219E+01    9.5163106027471063E+00    2.8382850173276569E+01
Au    1.3415380728798043E+01    9.4587994645526123E+00    2.8432859246478333E+01
Au    1.6342916998484519E+01    9.4370933738821599E+00    2.8472403077467771E+01
Au    2.4689307352501710E-09    1.2003022864197096E+01    2.8485691856255848E+01
Au    2.9568993925479390E+00    1.2012221722440637E+01    2.8471478940774730E+01
Au    5.9178353734551958E+00    1.2040132648009587E+01    2.8455903942710158E+01
Au    8.9059391968628674E+00    1.2024898884822742E+01    2.8460987715280570E+01
Au    1.1894043024863842E+01    1.2040132650519279E+01    2.8455903946326480E+01
Au    1.4854979005819811E+01    1.2012221721739483E+01    2.8471478947760147E+01
Au    1.4795359074233092E+00    1.4568194652603166E+01    2.8488351042438396E+01
Au    4.4412031664556535E+00    1.4573885822187700E+01    2.8467136288935624E+01
Au    7.4167634238268905E+00    1.4571854973055826E+01    2.8458901894236046E+01
Au    1.0395114972915456E+01    1.4571854972530195E+01    2.8458901897646392E+01
Au    1.3370675233898986E+01    1.4573885825005233E+01    2.8467136295803140E+01
Au    1.6332342492182608E+01    1.4568194655015436E+01    2.8488351045487978E+01
Au    1.5304565067755098E-09    1.0821192587592509E-03    3.0918222116132561E+01
Au    2.9790457252276639E+00    2.9399080411267194E-03    3.0915497689956954E+01
Au    5.9477013093050335E+00   -3.2873128315856752E-04    3.0910982535295631E+01
Au    8.9059391989596968E+00    1.3074621386584842E-02    3.0906441309710218E+01
Au    1.1864177089925677E+01   -3.2873330658775128E-04    3.0910982535816718E+01
Au    1.4832832674569540E+01    2.9399113991062319E-03    3.0915497692918702E+01
Au    1.4887484642832385E+00    2.5769536272665414E+00    3.0917461390665988E+01
Au    4.4617903220384090E+00    2.5765601592820491E+00    3.0913074124172098E+01
Au    7.4251978657051456E+00    2.5877317861634714E+00    3.0890963049125144E+01
Au    1.0386680534410445E+01    2.5877317860473110E+00    3.0890963050230894E+01
Au    1.3350088079728447E+01    2.5765601590596008E+00    3.0913074126572464E+01
Au    1.6323129940311500E+01    2.5769536271304125E+00    3.0917461389473107E+01
Au    3.6067776511932026E-09    5.1495871695920865E+00    3.0915262894354655E+01
Au    2.9799667162289851E+00    5.1496457460232516E+00    3.0914780907790725E+01
Au    5.9588955048674404E+00    5.1522666065068456E+00    3.0848833067246126E+01
Au    8.9059391995705237E+00    5.1270155421446155E+00    3.0881610935440925E+01
Au    1.1852982896151225E+01    5.1522666065871530E+00    3.0848833069044552E+01
Au    1.4831911685357753E+01    5.1496457486279903E+00    3.0914780907093000E+01
Au    1.4881522495690698E+00    7.7167320462155695E+00    3.0919730312539240E+01
Au    4.4721878942411655E+00    7.7092823695219117E+00    3.0898898286013232E+01
Au    7.4147215210933624E+00    7.7158021355283228E+00    3.0887381348760673E+01
Au    1.0397156879983573E+01    7.7158021362145703E+00    3.0887381349606422E+01
Au    1.3339690505228699E+01    7.7092823721181025E+00    3.0898898283609224E+01
Au    1.6323726150604770E+01    7.7167320481601562E+00    3.0919730314256142E+01
Au    3.8929526013126565E-09    1.0286751946952693E+01    3.0919698471948397E+01
Au    2.9887591495054862E+00    1.0275663595361811E+01    3.0908020113108673E+01
Au    5.9566305984328460E+00    1.0276801937915923E+01    3.0893117201541070E+01
Au    8.9059391981445195E+00    1.0259199959088953E+01    3.0844050482188290E+01
Au    1.1855247799875904E+01    1.0276801939768397E+01    3.0893117200997814E+01
Au    1.4823119252148771E+01    1.0275663597537429E+01    3.0908020116291208E+01
Au    1.4905542127769160E+00    1.2849101882316864E+01    3.0919872977033602E+01
Au    4.4623115014575676E+00    1.2855242937278588E+01    3.0912691206285682E+01
Au    7.4297391444364775E+00    1.2848336351155272E+01    3.0908478608693720E+01
Au    1.0382139249389484E+01    1.2848336353731773E+01    3.0908478610614583E+01
Au    1.3349566895922528E+01    1.2855242937815941E+01    3.0912691206135190E+01
Au    1.6321324185684599E+01    1.2849101880131894E+01    3.0919872975924850E+01
     &END COORD
     &KIND Au
       BASIS_SET TZVP-MOLOPT-SR-GTH-q11
       ELEMENT Au
       POTENTIAL GTH-PBE-q11
       &POTENTIAL
1 0 10
0.5900000000000000E+00 1  0.1051717881000000E+02
3
0.5438473300000000E+00 2  0.5786811030000000E+01 -0.2250679660000000E+01
0.2905614950000000E+01
0.6091729800000000E+00 2  0.4284048730000000E+01 -0.4071285200000000E+01
0.4817209620000000E+01
0.4373092200000000E+00 2 -0.7403281240000000E+01  0.3010193070000000E+01
-0.3413238110000000E+01
       &END POTENTIAL
     &END KIND
     &TOPOLOGY
       COORD_FILE_NAME junction_65.xyz
       COORD_FILE_FORMAT  XYZ
       NUMBER_OF_ATOMS  193
       MULTIPLE_UNIT_CELL  1 1 1
     &END TOPOLOGY
   &END SUBSYS
   &PRINT
     &TOTAL_NUMBERS  ON
     &END TOTAL_NUMBERS
   &END PRINT
 &END FORCE_EVAL
