 # Version information for this restart file 
 # current date 2022-04-30 14:03:51.386
 # current working dir /rds/general/user/jj1921/home/junction/ortho/cell_65
 # Program compiled at                              Thu 12 Jul 13:52:12 BST 2018
 # Program compiled on                                      build-2.hpc.ic.ac.uk
 # Program compiled for                                       Linux-x86-64-intel
 # Source code revision number                                         svn:18464
 &GLOBAL
   PRINT_LEVEL  MEDIUM
   PROJECT_NAME Au_junction
   RUN_TYPE  CELL_OPT
 &END GLOBAL
 &MOTION
   &CELL_OPT
     OPTIMIZER  BFGS
     STEP_START_VAL  46
     TYPE  DIRECT_CELL_OPT
     KEEP_ANGLES  T
     KEEP_SYMMETRY  T
     CONSTRAINT  XY
   &END CELL_OPT
   &CONSTRAINT
     &FIXED_ATOMS
       COMPONENTS_TO_FIX  XYZ
       LIST  1..36
     &END FIXED_ATOMS
   &END CONSTRAINT
   &PRINT
     &TRAJECTORY  SILENT
       &EACH
         CELL_OPT  1
       &END EACH
     &END TRAJECTORY
   &END PRINT
 &END MOTION
 &FORCE_EVAL
   METHOD  QS
   STRESS_TENSOR  ANALYTICAL
   &DFT
     BASIS_SET_FILE_NAME /rds/general/user/jj1921/home/BASIS_COM_MOLOPT_GTH
     POTENTIAL_FILE_NAME /rds/general/user/jj1921/home/GTH_POTENTIALS
     &SCF
       MAX_SCF  500
       EPS_SCF     9.9999999999999995E-08
       CHOLESKY  INVERSE
       SCF_GUESS  ATOMIC
       ADDED_MOS  20
       &DIAGONALIZATION  T
         ALGORITHM  STANDARD
       &END DIAGONALIZATION
       &SMEAR  T
         METHOD  FERMI_DIRAC
         ELECTRONIC_TEMPERATURE     3.0000000000000000E+02
       &END SMEAR
       &MIXING  T
         METHOD  BROYDEN_MIXING
         ALPHA     4.0000000000000002E-01
         BETA     5.0000000000000000E-01
         NBUFFER  8
       &END MIXING
     &END SCF
     &QS
       EPS_DEFAULT     1.0000000000000000E-14
       METHOD  GPW
     &END QS
     &MGRID
       NGRIDS  4
       CUTOFF     5.0000000000000000E+02
       REL_CUTOFF     4.0000000000000000E+01
     &END MGRID
     &XC
       DENSITY_CUTOFF     1.0000000000000000E-10
       GRADIENT_CUTOFF     1.0000000000000000E-10
       TAU_CUTOFF     1.0000000000000000E-10
       &XC_FUNCTIONAL  NO_SHORTCUT
         &PBE  T
         &END PBE
       &END XC_FUNCTIONAL
     &END XC
     &KPOINTS
       SCHEME MONKHORST-PACK 4 4 1
       FULL_GRID  T
     &END KPOINTS
   &END DFT
   &SUBSYS
     &CELL
       A     1.7811878396732901E+01    0.0000000000000000E+00    0.0000000000000000E+00
       B     0.0000000000000000E+00    1.5425539180689929E+01    0.0000000000000000E+00
       C     0.0000000000000000E+00    0.0000000000000000E+00    3.4024869851713170E+01
       PERIODIC  XYZ
       MULTIPLE_UNIT_CELL  1 1 1
       SYMMETRY  ORTHORHOMBIC
     &END CELL
     &COORD
Au    1.4843231999999995E+00    8.5697439999999980E-01    0.0000000000000000E+00
Au    4.4529695999999985E+00    8.5697439999999980E-01    0.0000000000000000E+00
Au    7.4216159999999975E+00    8.5697439999999980E-01    0.0000000000000000E+00
Au    1.0390262399999999E+01    8.5697439999999980E-01    0.0000000000000000E+00
Au    1.3358908799999998E+01    8.5697439999999980E-01    0.0000000000000000E+00
Au    1.6327555199999995E+01    8.5697439999999980E-01    0.0000000000000000E+00
Au    0.0000000000000000E+00    3.4278975999999992E+00    0.0000000000000000E+00
Au    2.9686463999999990E+00    3.4278975999999992E+00    0.0000000000000000E+00
Au    5.9372927999999980E+00    3.4278975999999992E+00    0.0000000000000000E+00
Au    8.9059391999999971E+00    3.4278975999999992E+00    0.0000000000000000E+00
Au    1.1874585599999996E+01    3.4278975999999992E+00    0.0000000000000000E+00
Au    1.4843231999999995E+01    3.4278975999999992E+00    0.0000000000000000E+00
Au    1.4843231999999995E+00    5.9988207899999981E+00    0.0000000000000000E+00
Au    4.4529695999999985E+00    5.9988207899999981E+00    0.0000000000000000E+00
Au    7.4216159999999975E+00    5.9988207899999981E+00    0.0000000000000000E+00
Au    1.0390262399999999E+01    5.9988207899999981E+00    0.0000000000000000E+00
Au    1.3358908799999998E+01    5.9988207899999981E+00    0.0000000000000000E+00
Au    1.6327555199999995E+01    5.9988207899999981E+00    0.0000000000000000E+00
Au    0.0000000000000000E+00    8.5697439899999974E+00    0.0000000000000000E+00
Au    2.9686463999999990E+00    8.5697439899999974E+00    0.0000000000000000E+00
Au    5.9372927999999980E+00    8.5697439899999974E+00    0.0000000000000000E+00
Au    8.9059391999999971E+00    8.5697439899999974E+00    0.0000000000000000E+00
Au    1.1874585599999996E+01    8.5697439899999974E+00    0.0000000000000000E+00
Au    1.4843231999999995E+01    8.5697439899999974E+00    0.0000000000000000E+00
Au    1.4843231999999995E+00    1.1140667189999997E+01    0.0000000000000000E+00
Au    4.4529695999999985E+00    1.1140667189999997E+01    0.0000000000000000E+00
Au    7.4216159999999975E+00    1.1140667189999997E+01    0.0000000000000000E+00
Au    1.0390262399999999E+01    1.1140667189999997E+01    0.0000000000000000E+00
Au    1.3358908799999998E+01    1.1140667189999997E+01    0.0000000000000000E+00
Au    1.6327555199999995E+01    1.1140667189999997E+01    0.0000000000000000E+00
Au    0.0000000000000000E+00    1.3711590380000001E+01    0.0000000000000000E+00
Au    2.9686463999999990E+00    1.3711590380000001E+01    0.0000000000000000E+00
Au    5.9372927999999980E+00    1.3711590380000001E+01    0.0000000000000000E+00
Au    8.9059391999999971E+00    1.3711590380000001E+01    0.0000000000000000E+00
Au    1.1874585599999996E+01    1.3711590380000001E+01    0.0000000000000000E+00
Au    1.4843231999999995E+01    1.3711590380000001E+01    0.0000000000000000E+00
Au    2.0720865554623568E-09    1.6862106686809064E+00    2.4181099060529814E+00
Au    2.9495811257082289E+00    1.7092679125411931E+00    2.4090100928979701E+00
Au    5.9098803520170868E+00    1.7152288963703308E+00    2.3976665681004823E+00
Au    8.9059392009275058E+00    1.7445759363588604E+00    2.3965431552489300E+00
Au    1.1901998048898966E+01    1.7152288954467954E+00    2.3976665687953083E+00
Au    1.4862297275888604E+01    1.7092679113389113E+00    2.4090100895142159E+00
Au    1.4812573626025656E+00    4.2607246723689176E+00    2.4039690727621434E+00
Au    4.4489147315494213E+00    4.2869033967092101E+00    2.4107916567668020E+00
Au    7.4115244631556125E+00    4.2946455157475558E+00    2.4090124486447086E+00
Au    1.0400353939752129E+01    4.2946455146718190E+00    2.4090124484927222E+00
Au    1.3362963669682399E+01    4.2869033963410166E+00    2.4107916693936922E+00
Au    1.6330621033596479E+01    4.2607246721494043E+00    2.4039690757497003E+00
Au    8.2778044161734448E-10    6.8284910749008221E+00    2.4029725186588347E+00
Au    2.9575411978858592E+00    6.8375812270331604E+00    2.3972293467387944E+00
Au    5.9320191948999836E+00    6.8576745850024423E+00    2.4058372185295340E+00
Au    8.9059392019448325E+00    6.8651932677480962E+00    2.4587115763886453E+00
Au    1.1879859205564617E+01    6.8576745856050376E+00    2.4058372194114770E+00
Au    1.4854337200931168E+01    6.8375812259316611E+00    2.3972293486817073E+00
Au    1.4823222249077153E+00    9.4016786937256640E+00    2.4103909716954255E+00
Au    4.4565167008856372E+00    9.4212697371719401E+00    2.3968327363808637E+00
Au    7.4229062985880869E+00    9.4443458626003771E+00    2.4057037536438832E+00
Au    1.0388972101052220E+01    9.4443458629357817E+00    2.4057037546708542E+00
Au    1.3355361698536697E+01    9.4212697375411505E+00    2.3968327343501641E+00
Au    1.6329556174021249E+01    9.4016786950585498E+00    2.4103909710582618E+00
Au    2.9219493880601847E-09    1.1964700041279521E+01    2.4240431040709884E+00
Au    2.9715020001120367E+00    1.1984448995132936E+01    2.4120021136291601E+00
Au    5.9390272271944822E+00    1.2020913840184519E+01    2.3961598045643751E+00
Au    8.9059392000726270E+00    1.2016288419254847E+01    2.3989236987919411E+00
Au    1.1872851172819544E+01    1.2020913840263953E+01    2.3961598037297063E+00
Au    1.4840376401281508E+01    1.1984448994983046E+01    2.4120021124733575E+00
Au    1.4798582451499360E+00    1.4542144594174625E+01    2.4246449235030010E+00
Au    4.4364232788947096E+00    1.4569858288246929E+01    2.4057068123505361E+00
Au    7.4208493210023141E+00    1.4594029938823050E+01    2.3917984402198367E+00
Au    1.0391029079282466E+01    1.4594029938166333E+01    2.3917984385826094E+00
Au    1.3375455121017430E+01    1.4569858287103809E+01    2.4057068129234884E+00
Au    1.6332020156229294E+01    1.4542144593396205E+01    2.4246449184287586E+00
Au    1.5928628021540020E-09   -2.7126566094902153E-02    4.8811674129731548E+00
Au    2.9428804717028725E+00   -9.8334056018433372E-03    4.8745696338292444E+00
Au    5.9029937887861541E+00   -1.6190072388479877E-02    4.8555414475161145E+00
Au    8.9059392011974126E+00    2.6486349588617829E-03    4.8390389676959265E+00
Au    1.1908884612330024E+01   -1.6190072799913517E-02    4.8555414475513192E+00
Au    1.4868997929220555E+01   -9.8334044889814617E-03    4.8745696300468042E+00
Au    1.4625881527322169E+00    2.5546358732671615E+00    4.8811423644507075E+00
Au    4.3934628740075388E+00    2.5237304900795756E+00    4.8539251365845972E+00
Au    7.3636353704790745E+00    2.4851819499449364E+00    4.8264460606824935E+00
Au    1.0448243032080908E+01    2.4851819505558201E+00    4.8264460605990998E+00
Au    1.3418415527491717E+01    2.5237304892268995E+00    4.8539251363524665E+00
Au    1.6349290247145213E+01    2.5546358717127733E+00    4.8811423656673929E+00
Au    1.4551601599562190E-09    5.1226172733977933E+00    4.8700951662434457E+00
Au    2.9027136120821688E+00    5.1239709508588653E+00    4.8558610662847874E+00
Au    5.8085408369136227E+00    5.0689435915364838E+00    4.8832978462965846E+00
Au    8.9059392023664294E+00    4.9291336707743509E+00    4.7946554914277897E+00
Au    1.2003337564287154E+01    5.0689435923947803E+00    4.8832978528896636E+00
Au    1.4909164793371396E+01    5.1239709530494411E+00    4.8558610743516386E+00
Au    1.4567052587482727E+00    7.6918215932052654E+00    4.8674738962489625E+00
Au    4.3610876867195110E+00    7.7147270314818561E+00    4.8296326851439328E+00
Au    7.2520394175620346E+00    7.8134932838589295E+00    4.7836561940404954E+00
Au    1.0559838988342092E+01    7.8134932891142661E+00    4.7836561969243521E+00
Au    1.3450790715490841E+01    7.7147270342942447E+00    4.8296326866077193E+00
Au    1.6355173144982910E+01    7.6918215937059804E+00    4.8674738958322452E+00
Au    3.3611471877258421E-09    1.0247752110084756E+01    4.8641263355512745E+00
Au    2.9408261877100847E+00    1.0280583468096149E+01    4.8523659010284996E+00
Au    5.8815047192024554E+00    1.0366618791156048E+01    4.8204803706949653E+00
Au    8.9059392005182385E+00    1.0449999789809798E+01    4.8668635795630841E+00
Au    1.1930373683749508E+01    1.0366618794549396E+01    4.8204803705836676E+00
Au    1.4871052212010932E+01    1.0280583470602950E+01    4.8523659014733553E+00
Au    1.4812263700008741E+00    1.2832594518310259E+01    4.8694950936966110E+00
Au    4.4255436526792824E+00    1.2875440214648602E+01    4.8620338253486741E+00
Au    7.3967653620782885E+00    1.2927680455186133E+01    4.8303176584715946E+00
Au    1.0415113041033752E+01    1.2927680456963270E+01    4.8303176595845914E+00
Au    1.3386334751417159E+01    1.2875440215187105E+01    4.8620338245313359E+00
Au    1.6330652034897614E+01    1.2832594517519643E+01    4.8694950915916859E+00
Au    7.4179401988852760E+00    5.9965731200642898E+00    6.9163314765543253E+00
Au    1.0393938205760254E+01    5.9965731227590560E+00    6.9163314767247570E+00
Au    8.9059391998460686E+00    8.6053453176238968E+00    6.8985219158518669E+00
Au    8.9059392029096589E+00    6.8954157797340825E+00    9.0642368402750897E+00
Au    8.9059391542522661E+00    6.5922248606942544E+00    1.1680352847216010E+01
Au    8.9059392408134812E+00    7.1738213247966769E+00    1.4314874050140602E+01
Au    8.9059391373664081E+00    6.9051477060336133E+00    1.6949627855416001E+01
Au    8.9059392429774622E+00    6.4820991957005569E+00    1.9588766891334515E+01
Au    8.9059391974404676E+00    7.1271515387943483E+00    2.2187716665760831E+01
Au    8.9059392023083976E+00    6.8139309870341656E+00    2.4838777537139318E+01
Au    8.9059391928431175E+00    5.1408136615564031E+00    2.7026695462547668E+01
Au    7.4402803390515730E+00    7.7127734895055742E+00    2.7005984791209372E+01
Au    1.0371598061487898E+01    7.7127734812444722E+00    2.7005984794621810E+01
Au    2.7833227789035513E-09    1.7272150302143905E+00    2.9160431950873395E+01
Au    2.9615548741941824E+00    1.7228343426740966E+00    2.9166741703505295E+01
Au    5.9097857310093342E+00    1.6784004930096414E+00    2.9190656325232116E+01
Au    8.9059391983406364E+00    1.6596275891344816E+00    2.9185882380714556E+01
Au    1.1902092666179250E+01    1.6784004974104521E+00    2.9190656321695609E+01
Au    1.4850323527495418E+01    1.7228343422196155E+00    2.9166741699168487E+01
Au    1.4795735073911320E+00    4.2913471163733297E+00    2.9166631776387451E+01
Au    4.4203268730755498E+00    4.2759137077328511E+00    2.9196775923015174E+01
Au    7.3750847572807796E+00    4.1828233775390995E+00    2.9151115041805419E+01
Au    1.0436793635647756E+01    4.1828233772652030E+00    2.9151115035829864E+01
Au    1.3391551523732554E+01    4.2759137096962316E+00    2.9196775928276807E+01
Au    1.6332304887070034E+01    4.2913471152331963E+00    2.9166631776710929E+01
Au    2.5132232842307313E-09    6.8499553694673967E+00    2.9161970818423395E+01
Au    2.9227247873406275E+00    6.8580521765605988E+00    2.9182000990032797E+01
Au    5.8355578428710215E+00    6.8761620432498383E+00    2.9143418352313457E+01
Au    8.9059391943020128E+00    6.8666986767350853E+00    2.9334969938839535E+01
Au    1.1976320556287066E+01    6.8761620496619464E+00    2.9143418357475493E+01
Au    1.4889153612183710E+01    6.8580521636827116E+00    2.9182000991265202E+01
Au    1.4686659061039038E+00    9.4226504767768091E+00    2.9158947802699860E+01
Au    4.4045834133254953E+00    9.4549886838854320E+00    2.9169591035296182E+01
Au    7.3561225993511394E+00    9.5268427530609348E+00    2.9138311108133525E+01
Au    1.0455755803479915E+01    9.5268427463229965E+00    2.9138311109866706E+01
Au    1.3407294988483928E+01    9.4549886797418026E+00    2.9169591032004679E+01
Au    1.6343212496887986E+01    9.4226504758636178E+00    2.9158947801895021E+01
Au    3.9537496297761535E-09    1.1991392297508236E+01    2.9147981272570039E+01
Au    2.9539948833239071E+00    1.2010282462226902E+01    2.9164921534775139E+01
Au    5.9095909058704654E+00    1.2045776888338182E+01    2.9187419017493454E+01
Au    8.9059392051985586E+00    1.2044239525520986E+01    2.9205810680356194E+01
Au    1.1902287498953417E+01    1.2045776889789463E+01    2.9187419014984577E+01
Au    1.4857883521184320E+01    1.2010282457880832E+01    2.9164921527131845E+01
Au    1.4845423302592582E+00    1.4574151625041701E+01    2.9155493621685661E+01
Au    4.4527360956320763E+00    1.4578494493976690E+01    2.9167228641317962E+01
Au    7.4191761785313117E+00    1.4566796156456460E+01    2.9184375243039344E+01
Au    1.0392702223268989E+01    1.4566796157383800E+01    2.9184375240286172E+01
Au    1.3359142303236279E+01    1.4578494496736264E+01    2.9167228635919230E+01
Au    1.6327336072634800E+01    1.4574151625433435E+01    2.9155493619176390E+01
Au    2.3072223766508823E-09    1.2172341530603927E-02    3.1599645201338941E+01
Au    2.9644730147750376E+00    7.8355269630366944E-03    3.1605716925929467E+01
Au    5.9360770966454011E+00   -3.7148037774280638E-03    3.1629567761938944E+01
Au    8.9059392009719378E+00    6.6945083363232271E-03    3.1626424753259837E+01
Au    1.1875801304290562E+01   -3.7148018735811473E-03    3.1629567760050701E+01
Au    1.4847405385284320E+01    7.8355269221843469E-03    3.1605716918746722E+01
Au    1.4804928790435401E+00    2.5846270305526242E+00    3.1609616290581410E+01
Au    4.4502062591769933E+00    2.5742651803034828E+00    3.1628353713166561E+01
Au    7.4097057044816346E+00    2.5705809684656633E+00    3.1623825176913325E+01
Au    1.0402172693119871E+01    2.5705809673488158E+00    3.1623825173996323E+01
Au    1.3361672140943037E+01    2.5742651803349390E+00    3.1628353709394361E+01
Au    1.6331385521569540E+01    2.5846270296277298E+00    3.1609616288424373E+01
Au    9.3381488984124271E-10    5.1572958780116451E+00    3.1616943991358255E+01
Au    2.9705398706418347E+00    5.1535418643160122E+00    3.1629721721360525E+01
Au    5.9486782665620890E+00    5.1471520967361650E+00    3.1591908139049337E+01
Au    8.9059391987668040E+00    5.1374911497655864E+00    3.1609423956649124E+01
Au    1.1863200128520145E+01    5.1471520948517284E+00    3.1591908137608804E+01
Au    1.4841338525688633E+01    5.1535418616445385E+00    3.1629721733115023E+01
Au    1.4855067471615699E+00    7.7246426262437566E+00    3.1622227023172869E+01
Au    4.4522441938757042E+00    7.7068844943634307E+00    3.1619750514022289E+01
Au    7.4216415702670737E+00    7.7116732027423769E+00    3.1613586367362739E+01
Au    1.0390236826700091E+01    7.7116732007274686E+00    3.1613586367181544E+01
Au    1.3359634204578551E+01    7.7068844925548197E+00    3.1619750512015280E+01
Au    1.6326371649979890E+01    7.7246426246172009E+00    3.1622227017341739E+01
Au    2.3008752432208216E-09    1.0293982538824608E+01    3.1611591978496378E+01
Au    2.9730215312470496E+00    1.0280331961616501E+01    3.1614054760796691E+01
Au    5.9388679347216984E+00    1.0287352907956372E+01    3.1619165275683091E+01
Au    8.9059392013481613E+00    1.0268929627238482E+01    3.1586850762250268E+01
Au    1.1873010469018073E+01    1.0287352907322695E+01    3.1619165274510021E+01
Au    1.4838856870668943E+01    1.0280331961457810E+01    3.1614054755270939E+01
Au    1.4764593246051980E+00    1.2860544535428646E+01    3.1604272916854960E+01
Au    4.4396206242215488E+00    1.2852520231826887E+01    3.1619874205140668E+01
Au    7.4171639884942442E+00    1.2846459486625662E+01    3.1636308162577894E+01
Au    1.0394714416427528E+01    1.2846459487178835E+01    3.1636308164074528E+01
Au    1.3372257779100959E+01    1.2852520231003870E+01    3.1619874205147234E+01
Au    1.6335419075094460E+01    1.2860544535445092E+01    3.1604272913988101E+01
     &END COORD
     &KIND Au
       BASIS_SET TZVP-MOLOPT-SR-GTH-q11
       ELEMENT Au
       POTENTIAL GTH-PBE-q11
       &POTENTIAL
1 0 10
0.5900000000000000E+00 1  0.1051717881000000E+02
3
0.5438473300000000E+00 2  0.5786811030000000E+01 -0.2250679660000000E+01
0.2905614950000000E+01
0.6091729800000000E+00 2  0.4284048730000000E+01 -0.4071285200000000E+01
0.4817209620000000E+01
0.4373092200000000E+00 2 -0.7403281240000000E+01  0.3010193070000000E+01
-0.3413238110000000E+01
       &END POTENTIAL
     &END KIND
     &TOPOLOGY
       COORD_FILE_NAME junction_65.xyz
       COORD_FILE_FORMAT  XYZ
       NUMBER_OF_ATOMS  193
       MULTIPLE_UNIT_CELL  1 1 1
     &END TOPOLOGY
   &END SUBSYS
   &PRINT
     &TOTAL_NUMBERS  ON
     &END TOTAL_NUMBERS
   &END PRINT
 &END FORCE_EVAL
