 # Version information for this restart file 
 # current date 2022-05-03 23:46:37.204
 # current working dir /rds/general/user/jj1921/home/junction/ortho/cell_65
 # Program compiled at                              Thu 12 Jul 13:52:12 BST 2018
 # Program compiled on                                      build-2.hpc.ic.ac.uk
 # Program compiled for                                       Linux-x86-64-intel
 # Source code revision number                                         svn:18464
 &GLOBAL
   PRINT_LEVEL  MEDIUM
   PROJECT_NAME Au_junction
   RUN_TYPE  CELL_OPT
 &END GLOBAL
 &MOTION
   &CELL_OPT
     OPTIMIZER  BFGS
     STEP_START_VAL  122
     TYPE  DIRECT_CELL_OPT
     KEEP_ANGLES  T
     KEEP_SYMMETRY  T
     CONSTRAINT  XY
   &END CELL_OPT
   &CONSTRAINT
     &FIXED_ATOMS
       COMPONENTS_TO_FIX  XYZ
       LIST  1..36
     &END FIXED_ATOMS
   &END CONSTRAINT
   &PRINT
     &TRAJECTORY  SILENT
       &EACH
         CELL_OPT  1
       &END EACH
     &END TRAJECTORY
   &END PRINT
 &END MOTION
 &FORCE_EVAL
   METHOD  QS
   STRESS_TENSOR  ANALYTICAL
   &DFT
     BASIS_SET_FILE_NAME /rds/general/user/jj1921/home/BASIS_COM_MOLOPT_GTH
     POTENTIAL_FILE_NAME /rds/general/user/jj1921/home/GTH_POTENTIALS
     &SCF
       MAX_SCF  500
       EPS_SCF     9.9999999999999995E-08
       CHOLESKY  INVERSE
       SCF_GUESS  ATOMIC
       ADDED_MOS  20
       &DIAGONALIZATION  T
         ALGORITHM  STANDARD
       &END DIAGONALIZATION
       &SMEAR  T
         METHOD  FERMI_DIRAC
         ELECTRONIC_TEMPERATURE     3.0000000000000000E+02
       &END SMEAR
       &MIXING  T
         METHOD  BROYDEN_MIXING
         ALPHA     4.0000000000000002E-01
         BETA     5.0000000000000000E-01
         NBUFFER  8
       &END MIXING
     &END SCF
     &QS
       EPS_DEFAULT     1.0000000000000000E-14
       METHOD  GPW
     &END QS
     &MGRID
       NGRIDS  4
       CUTOFF     5.0000000000000000E+02
       REL_CUTOFF     4.0000000000000000E+01
     &END MGRID
     &XC
       DENSITY_CUTOFF     1.0000000000000000E-10
       GRADIENT_CUTOFF     1.0000000000000000E-10
       TAU_CUTOFF     1.0000000000000000E-10
       &XC_FUNCTIONAL  NO_SHORTCUT
         &PBE  T
         &END PBE
       &END XC_FUNCTIONAL
     &END XC
     &KPOINTS
       SCHEME MONKHORST-PACK 4 4 1
       FULL_GRID  T
     &END KPOINTS
   &END DFT
   &SUBSYS
     &CELL
       A     1.7811878396732904E+01    0.0000000000000000E+00    0.0000000000000000E+00
       B     0.0000000000000000E+00    1.5425539180689926E+01    0.0000000000000000E+00
       C     0.0000000000000000E+00    0.0000000000000000E+00    3.2625060302865364E+01
       PERIODIC  XYZ
       MULTIPLE_UNIT_CELL  1 1 1
       SYMMETRY  ORTHORHOMBIC
     &END CELL
     &COORD
Au    1.4843231999999993E+00    8.5697439999999980E-01    0.0000000000000000E+00
Au    4.4529695999999976E+00    8.5697439999999980E-01    0.0000000000000000E+00
Au    7.4216159999999967E+00    8.5697439999999980E-01    0.0000000000000000E+00
Au    1.0390262399999997E+01    8.5697439999999980E-01    0.0000000000000000E+00
Au    1.3358908799999995E+01    8.5697439999999980E-01    0.0000000000000000E+00
Au    1.6327555199999992E+01    8.5697439999999980E-01    0.0000000000000000E+00
Au    0.0000000000000000E+00    3.4278975999999992E+00    0.0000000000000000E+00
Au    2.9686463999999986E+00    3.4278975999999992E+00    0.0000000000000000E+00
Au    5.9372927999999972E+00    3.4278975999999992E+00    0.0000000000000000E+00
Au    8.9059391999999953E+00    3.4278975999999992E+00    0.0000000000000000E+00
Au    1.1874585599999994E+01    3.4278975999999992E+00    0.0000000000000000E+00
Au    1.4843231999999993E+01    3.4278975999999992E+00    0.0000000000000000E+00
Au    1.4843231999999993E+00    5.9988207899999981E+00    0.0000000000000000E+00
Au    4.4529695999999976E+00    5.9988207899999981E+00    0.0000000000000000E+00
Au    7.4216159999999967E+00    5.9988207899999981E+00    0.0000000000000000E+00
Au    1.0390262399999997E+01    5.9988207899999981E+00    0.0000000000000000E+00
Au    1.3358908799999995E+01    5.9988207899999981E+00    0.0000000000000000E+00
Au    1.6327555199999992E+01    5.9988207899999981E+00    0.0000000000000000E+00
Au    0.0000000000000000E+00    8.5697439899999992E+00    0.0000000000000000E+00
Au    2.9686463999999986E+00    8.5697439899999992E+00    0.0000000000000000E+00
Au    5.9372927999999972E+00    8.5697439899999992E+00    0.0000000000000000E+00
Au    8.9059391999999953E+00    8.5697439899999992E+00    0.0000000000000000E+00
Au    1.1874585599999994E+01    8.5697439899999992E+00    0.0000000000000000E+00
Au    1.4843231999999993E+01    8.5697439899999992E+00    0.0000000000000000E+00
Au    1.4843231999999993E+00    1.1140667189999997E+01    0.0000000000000000E+00
Au    4.4529695999999976E+00    1.1140667189999997E+01    0.0000000000000000E+00
Au    7.4216159999999967E+00    1.1140667189999997E+01    0.0000000000000000E+00
Au    1.0390262399999997E+01    1.1140667189999997E+01    0.0000000000000000E+00
Au    1.3358908799999995E+01    1.1140667189999997E+01    0.0000000000000000E+00
Au    1.6327555199999992E+01    1.1140667189999997E+01    0.0000000000000000E+00
Au    0.0000000000000000E+00    1.3711590380000002E+01    0.0000000000000000E+00
Au    2.9686463999999986E+00    1.3711590380000002E+01    0.0000000000000000E+00
Au    5.9372927999999972E+00    1.3711590380000002E+01    0.0000000000000000E+00
Au    8.9059391999999953E+00    1.3711590380000002E+01    0.0000000000000000E+00
Au    1.1874585599999994E+01    1.3711590380000002E+01    0.0000000000000000E+00
Au    1.4843231999999993E+01    1.3711590380000002E+01    0.0000000000000000E+00
Au    2.3403236639297939E-08    1.6954609325532455E+00    2.4094515155082536E+00
Au    2.9546928012791103E+00    1.7004217452094941E+00    2.4078862215747665E+00
Au    5.9210726338541342E+00    1.7117470502175276E+00    2.4064462392121886E+00
Au    8.9059391922320117E+00    1.7383511795614917E+00    2.4208893805365905E+00
Au    1.1890805777250108E+01    1.7117470211976999E+00    2.4064462184109625E+00
Au    1.4857185641327108E+01    1.7004217050248027E+00    2.4078862353276285E+00
Au    1.4786421889993266E+00    4.2653404611913377E+00    2.4082402790370114E+00
Au    4.4484173232068107E+00    4.2757270917460524E+00    2.4280803544492069E+00
Au    7.4083319123968723E+00    4.2886539903553489E+00    2.4216566895181106E+00
Au    1.0403546441103767E+01    4.2886540008637271E+00    2.4216567500109818E+00
Au    1.3363461235515601E+01    4.2757270046382869E+00    2.4280800756990462E+00
Au    1.6333236300488604E+01    4.2653404648073163E+00    2.4082402864236512E+00
Au    2.0493613697144535E-08    6.8392964255973725E+00    2.4081161450294521E+00
Au    2.9581577180641347E+00    6.8354353804289456E+00    2.4047943502730127E+00
Au    5.9291482587460775E+00    6.8394308286172620E+00    2.4183918407527085E+00
Au    8.9059391950471944E+00    6.8571973100364962E+00    2.4851415581075633E+00
Au    1.1882730120986846E+01    6.8394308777857180E+00    2.4183918971005243E+00
Au    1.4853720713392320E+01    6.8354353771413212E+00    2.4047943389101580E+00
Au    1.4893652431642570E+00    9.4107584212108897E+00    2.4088333865145897E+00
Au    4.4637949698889399E+00    9.4107276921861125E+00    2.4173658649646668E+00
Au    7.4282717134686846E+00    9.4435520991962587E+00    2.4139789103254614E+00
Au    1.0383606709305829E+01    9.4435521050389895E+00    2.4139788780610862E+00
Au    1.3348083443765427E+01    9.4107277211078291E+00    2.4173659018146783E+00
Au    1.6322513157063884E+01    9.4107584248021841E+00    2.4088333727595361E+00
Au   -7.3180122375521268E-10    1.1975759746292942E+01    2.4078575792785908E+00
Au    2.9730853865859515E+00    1.1983187217624682E+01    2.4068199811199977E+00
Au    5.9377174998425390E+00    1.2013520364342098E+01    2.4037495825694313E+00
Au    8.9059392036083853E+00    1.2014562293803149E+01    2.4198592136697807E+00
Au    1.1874160906291200E+01    1.2013520370424438E+01    2.4037495966773172E+00
Au    1.4838793017411438E+01    1.1983187234470559E+01    2.4068199620450383E+00
Au    1.4817832387673728E+00    1.4550034496669209E+01    2.4090301835162675E+00
Au    4.4445632522448983E+00    1.4567200258127624E+01    2.4075224467610408E+00
Au    7.4221547863869404E+00    1.4590634808001305E+01    2.4058957468217312E+00
Au    1.0389723599571164E+01    1.4590634811364930E+01    2.4058957505782801E+00
Au    1.3367315157331497E+01    1.4567200255622790E+01    2.4075224336190937E+00
Au    1.6330095179113190E+01    1.4550034477894801E+01    2.4090301678606809E+00
Au    1.9335472499949678E-08   -3.4640392951578822E-02    4.8650957713382992E+00
Au    2.9334511967218440E+00   -2.6466771858119582E-02    4.8703536194126364E+00
Au    5.8920085900594019E+00   -2.1679160308456309E-02    4.8709369437306140E+00
Au    8.9059392039083303E+00    2.4471639530755335E-03    4.8577567026932336E+00
Au    1.1919869805701884E+01   -2.1679158878763961E-02    4.8709369288987157E+00
Au    1.4878427236273769E+01   -2.6466811300233057E-02    4.8703536342034868E+00
Au    1.4575694298317696E+00    2.5332647289418744E+00    4.8731066243522569E+00
Au    4.3855111920878045E+00    2.5120521961738205E+00    4.8684029614784867E+00
Au    7.3492634941240240E+00    2.4744685688065888E+00    4.8612105776762746E+00
Au    1.0462614906558652E+01    2.4744685975869181E+00    4.8612105693133918E+00
Au    1.3426367292370065E+01    2.5120520842643264E+00    4.8684029592610818E+00
Au    1.6354309027127879E+01    2.5332647101668688E+00    4.8731065936193323E+00
Au    6.8720081336658312E-08    5.1124818342157869E+00    4.8673589385466123E+00
Au    2.9004939879777005E+00    5.1055664394167266E+00    4.8677427196719902E+00
Au    5.8016476779173800E+00    5.0555713946881671E+00    4.9051646418253965E+00
Au    8.9059391580324654E+00    4.9012789056460306E+00    4.8044282182211884E+00
Au    1.2010231088334965E+01    5.0555711105612833E+00    4.9051639535188905E+00
Au    1.4911384567502923E+01    5.1055664387206576E+00    4.8677426926543044E+00
Au    1.4522904087491295E+00    7.6965921669575943E+00    4.8670378454561050E+00
Au    4.3372104125451623E+00    7.6998695017666936E+00    4.8582537397931107E+00
Au    7.2172524521925174E+00    7.8390418162913660E+00    4.7842726582571808E+00
Au    1.0594625928088004E+01    7.8390419594020599E+00    4.7842726033366683E+00
Au    1.3474668040678123E+01    7.6998695226476430E+00    4.8582537396225076E+00
Au    1.6359588047014981E+01    7.6965921689496328E+00    4.8670377902227733E+00
Au    1.0337101261766532E-08    1.0265919809930656E+01    4.8561429075315647E+00
Au    2.9400580316248552E+00    1.0284396895470493E+01    4.8550507536117156E+00
Au    5.8704597226426705E+00    1.0384266331674494E+01    4.8504437931193154E+00
Au    8.9059391470258440E+00    1.0443395414973574E+01    4.8863992499205180E+00
Au    1.1941418769554959E+01    1.0384266418273521E+01    4.8504438276686797E+00
Au    1.4871820419818013E+01    1.0284396921188184E+01    4.8550507831811247E+00
Au    1.4715251643271057E+00    1.2832795993938841E+01    4.8589409353019297E+00
Au    4.4128199608653871E+00    1.2875852700284456E+01    4.8673018997899788E+00
Au    7.3968601616466216E+00    1.2918913985690683E+01    4.8537829989017354E+00
Au    1.0415018244143392E+01    1.2918913982343028E+01    4.8537829873963707E+00
Au    1.3399058479932933E+01    1.2875852755188713E+01    4.8673019109683242E+00
Au    1.6340353239224733E+01    1.2832796000457870E+01    4.8589409410825866E+00
Au    7.4188711393669315E+00    6.0299957985401216E+00    6.9160297468340390E+00
Au    1.0393008131442119E+01    6.0299959676902128E+00    6.9160292757788611E+00
Au    8.9059395946015982E+00    8.5711076928036043E+00    6.9177598831163705E+00
Au    8.9059402313667047E+00    6.8343001844881766E+00    9.0760935012178283E+00
Au    8.9059062890493585E+00    6.2300845829520091E+00    1.1628896596818906E+01
Au    8.9060110561257737E+00    7.7469910520644714E+00    1.3775717719101555E+01
Au    8.9058606028551726E+00    7.2912171256948826E+00    1.6359111335335967E+01
Au    8.9059889585888232E+00    5.9231131021437280E+00    1.8599179479641425E+01
Au    8.9059247976234310E+00    7.2638164594796892E+00    2.0838154389609901E+01
Au    8.9059392925265009E+00    6.8578873454638360E+00    2.3442662287356768E+01
Au    8.9059392036221503E+00    5.1469945033993598E+00    2.5639479953968657E+01
Au    7.4387390148838559E+00    7.6907663225803429E+00    2.5622147544338080E+01
Au    1.0373139673547172E+01    7.6907664000555886E+00    2.5622147980252208E+01
Au   -1.5272203141600071E-08    1.7114631063293630E+00    2.7776289118736891E+01
Au    2.9442154983892204E+00    1.7100048054677457E+00    2.7768203569598914E+01
Au    5.8938093374716169E+00    1.6716888321880479E+00    2.7769811555560679E+01
Au    8.9059391885060144E+00    1.6680942104727516E+00    2.7750861328818271E+01
Au    1.1918069048557138E+01    1.6716888250838831E+00    2.7769811571643221E+01
Au    1.4867662934857096E+01    1.7100047475661613E+00    2.7768203576470938E+01
Au    1.4689947991806793E+00    4.2830531346140788E+00    2.7770383156933562E+01
Au    4.4013982600192127E+00    4.2635976764225170E+00    2.7776903839958379E+01
Au    7.3522122404918040E+00    4.1777389972658323E+00    2.7739649414162542E+01
Au    1.0459666066808277E+01    4.1777390579674432E+00    2.7739649247614800E+01
Au    1.3410480180438844E+01    4.2635975757259352E+00    2.7776903796622484E+01
Au    1.6342883617106324E+01    4.2830531212378391E+00    2.7770383227009305E+01
Au    1.6269669598929910E-08    6.8675041328943500E+00    2.7765203976617347E+01
Au    2.9109709599102103E+00    6.8600266389566009E+00    2.7764612804226473E+01
Au    5.8101575753103525E+00    6.8707141969252223E+00    2.7733313483331646E+01
Au    8.9059391438112705E+00    6.8691957024515782E+00    2.7938538943764588E+01
Au    1.2001720944103369E+01    6.8707139989440922E+00    2.7733313620696403E+01
Au    1.4900907496399247E+01    6.8600266476177687E+00    2.7764612818272905E+01
Au    1.4651467413317210E+00    9.4448562253376345E+00    2.7761187904443979E+01
Au    4.3951201850586816E+00    9.4647554039768380E+00    2.7738536654370080E+01
Au    7.3430400235389621E+00    9.5382812561517198E+00    2.7720752931588990E+01
Au    1.0468838306283335E+01    9.5382815412865298E+00    2.7720753174463269E+01
Au    1.3416758165179631E+01    9.4647553910872624E+00    2.7738536711877270E+01
Au    1.6346731661004991E+01    9.4448562456873866E+00    2.7761187941630148E+01
Au    1.8837888477410519E-09    1.2011050440255643E+01    2.7766502617484040E+01
Au    2.9483928220279370E+00    1.2017930044157302E+01    2.7763925055263730E+01
Au    5.9052959998001739E+00    1.2054237915485883E+01    2.7763249872128281E+01
Au    8.9059391327699480E+00    1.2044442767572995E+01    2.7771393352225054E+01
Au    1.1906582431217171E+01    1.2054237975329160E+01    2.7763249870071835E+01
Au    1.4863485587156728E+01    1.2017930037695262E+01    2.7763925069100715E+01
Au    1.4744167311265748E+00    1.4570602944936381E+01    2.7774241988915247E+01
Au    4.4270700994934087E+00    1.4575259959503281E+01    2.7768057583205906E+01
Au    7.4118853650485921E+00    1.4573545698550550E+01    2.7768491520591127E+01
Au    1.0399993029417672E+01    1.4573545688248837E+01    2.7768491542709654E+01
Au    1.3384808313993712E+01    1.4575259968245396E+01    2.7768057587579008E+01
Au    1.6337461657349902E+01    1.4570602964802667E+01    2.7774241958494986E+01
Au   -4.3268158076142476E-09    5.0352645855740209E-03    3.0221267004368286E+01
Au    2.9681314047416878E+00    7.5095414844869989E-03    3.0219443040680950E+01
Au    5.9393715857514442E+00   -6.8397792930374839E-03    3.0220635537332118E+01
Au    8.9059392076713646E+00    5.5140778791162356E-03    3.0210581182162645E+01
Au    1.1872506809192819E+01   -6.8397893617845856E-03    3.0220635555596683E+01
Au    1.4843746985410103E+01    7.5095363802587627E-03    3.0219443056060609E+01
Au    1.4850689916440827E+00    2.5815033225198856E+00    3.0218052761897425E+01
Au    4.4558132973377598E+00    2.5725355279565445E+00    3.0219055920713664E+01
Au    7.4156095992788806E+00    2.5714149069148799E+00    3.0207847520313830E+01
Au    1.0396268803679732E+01    2.5714149478972796E+00    3.0207847438607224E+01
Au    1.3356065091666483E+01    2.5725355142060375E+00    3.0219055931221231E+01
Au    1.6326809415250935E+01    2.5815033013499433E+00    3.0218052779360697E+01
Au    5.7727911309916793E-09    5.1527212053910656E+00    3.0217225606930903E+01
Au    2.9683115910750635E+00    5.1510459949638570E+00    3.0218649745900276E+01
Au    5.9418136057793403E+00    5.1512890265702707E+00    3.0171094974009552E+01
Au    8.9059391938189361E+00    5.1251743610543823E+00    3.0212033803267619E+01
Au    1.1870064771528593E+01    5.1512889614522743E+00    3.0171094931910027E+01
Au    1.4843566789545587E+01    5.1510460057026641E+00    3.0218649772298452E+01
Au    1.4835204682039773E+00    7.7245283531042812E+00    3.0217538555560441E+01
Au    4.4503629958260289E+00    7.7140334003294466E+00    3.0207022816747791E+01
Au    7.4043883168476254E+00    7.7236297428148486E+00    3.0214900973017112E+01
Au    1.0407490088523861E+01    7.7236297431543175E+00    3.0214900971823582E+01
Au    1.3361515383783706E+01    7.7140333932106691E+00    3.0207022793067960E+01
Au    1.6328357947540173E+01    7.7245283449345026E+00    3.0217538563104636E+01
Au    1.0489512323655458E-08    1.0291337940701871E+01    3.0216340155616958E+01
Au    2.9769973296374914E+00    1.0282625161214360E+01    3.0211121036798527E+01
Au    5.9385082649504257E+00    1.0289659577674239E+01    3.0204651608084809E+01
Au    8.9059391361008533E+00    1.0268001289994872E+01    3.0161637951416811E+01
Au    1.1873370151544297E+01    1.0289659581130170E+01    3.0204651637531587E+01
Au    1.4834881090008222E+01    1.0282625172236518E+01    3.0211121073092940E+01
Au    1.4854017371603949E+00    1.2857162696167173E+01    3.0219783900106727E+01
Au    4.4477469519547181E+00    1.2856014608482855E+01    3.0218385765108156E+01
Au    7.4221182913944928E+00    1.2847378043358958E+01    3.0216877805652306E+01
Au    1.0389760090381721E+01    1.2847378026776504E+01    3.0216877798892359E+01
Au    1.3364131446834779E+01    1.2856014610454537E+01    3.0218385782989920E+01
Au    1.6326476667583993E+01    1.2857162689869741E+01    3.0219783894249950E+01
     &END COORD
     &KIND Au
       BASIS_SET TZVP-MOLOPT-SR-GTH-q11
       ELEMENT Au
       POTENTIAL GTH-PBE-q11
       &POTENTIAL
1 0 10
0.5900000000000000E+00 1  0.1051717881000000E+02
3
0.5438473300000000E+00 2  0.5786811030000000E+01 -0.2250679660000000E+01
0.2905614950000000E+01
0.6091729800000000E+00 2  0.4284048730000000E+01 -0.4071285200000000E+01
0.4817209620000000E+01
0.4373092200000000E+00 2 -0.7403281240000000E+01  0.3010193070000000E+01
-0.3413238110000000E+01
       &END POTENTIAL
     &END KIND
     &TOPOLOGY
       COORD_FILE_NAME junction_65.xyz
       COORD_FILE_FORMAT  XYZ
       NUMBER_OF_ATOMS  193
       MULTIPLE_UNIT_CELL  1 1 1
     &END TOPOLOGY
   &END SUBSYS
   &PRINT
     &TOTAL_NUMBERS  ON
     &END TOTAL_NUMBERS
   &END PRINT
 &END FORCE_EVAL
