 # Version information for this restart file 
 # current date 2022-05-08 08:28:01.114
 # current working dir /rds/general/user/jj1921/home/junction/ortho/cell_65
 # Program compiled at                              Thu 12 Jul 13:52:12 BST 2018
 # Program compiled on                                      build-2.hpc.ic.ac.uk
 # Program compiled for                                       Linux-x86-64-intel
 # Source code revision number                                         svn:18464
 &GLOBAL
   PRINT_LEVEL  MEDIUM
   PROJECT_NAME Au_junction
   RUN_TYPE  CELL_OPT
 &END GLOBAL
 &MOTION
   &CELL_OPT
     OPTIMIZER  BFGS
     STEP_START_VAL  186
     TYPE  DIRECT_CELL_OPT
     KEEP_ANGLES  T
     KEEP_SYMMETRY  T
     CONSTRAINT  XY
   &END CELL_OPT
   &CONSTRAINT
     &FIXED_ATOMS
       COMPONENTS_TO_FIX  XYZ
       LIST  1..36
     &END FIXED_ATOMS
   &END CONSTRAINT
   &PRINT
     &TRAJECTORY  SILENT
       &EACH
         CELL_OPT  1
       &END EACH
     &END TRAJECTORY
   &END PRINT
 &END MOTION
 &FORCE_EVAL
   METHOD  QS
   STRESS_TENSOR  ANALYTICAL
   &DFT
     BASIS_SET_FILE_NAME /rds/general/user/jj1921/home/BASIS_COM_MOLOPT_GTH
     POTENTIAL_FILE_NAME /rds/general/user/jj1921/home/GTH_POTENTIALS
     &SCF
       MAX_SCF  500
       EPS_SCF     9.9999999999999995E-08
       CHOLESKY  INVERSE
       SCF_GUESS  ATOMIC
       ADDED_MOS  20
       &DIAGONALIZATION  T
         ALGORITHM  STANDARD
       &END DIAGONALIZATION
       &SMEAR  T
         METHOD  FERMI_DIRAC
         ELECTRONIC_TEMPERATURE     3.0000000000000000E+02
       &END SMEAR
       &MIXING  T
         METHOD  BROYDEN_MIXING
         ALPHA     4.0000000000000002E-01
         BETA     5.0000000000000000E-01
         NBUFFER  8
       &END MIXING
     &END SCF
     &QS
       EPS_DEFAULT     1.0000000000000000E-14
       METHOD  GPW
     &END QS
     &MGRID
       NGRIDS  4
       CUTOFF     5.0000000000000000E+02
       REL_CUTOFF     4.0000000000000000E+01
     &END MGRID
     &XC
       DENSITY_CUTOFF     1.0000000000000000E-10
       GRADIENT_CUTOFF     1.0000000000000000E-10
       TAU_CUTOFF     1.0000000000000000E-10
       &XC_FUNCTIONAL  NO_SHORTCUT
         &PBE  T
         &END PBE
       &END XC_FUNCTIONAL
     &END XC
     &KPOINTS
       SCHEME MONKHORST-PACK 4 4 1
       FULL_GRID  T
     &END KPOINTS
   &END DFT
   &SUBSYS
     &CELL
       A     1.7811878396732908E+01    0.0000000000000000E+00    0.0000000000000000E+00
       B     0.0000000000000000E+00    1.5425539180689926E+01    0.0000000000000000E+00
       C     0.0000000000000000E+00    0.0000000000000000E+00    3.2266348350641017E+01
       PERIODIC  XYZ
       MULTIPLE_UNIT_CELL  1 1 1
       SYMMETRY  ORTHORHOMBIC
     &END CELL
     &COORD
Au    1.4843231999999993E+00    8.5697440000000025E-01    0.0000000000000000E+00
Au    4.4529695999999976E+00    8.5697440000000025E-01    0.0000000000000000E+00
Au    7.4216159999999967E+00    8.5697440000000025E-01    0.0000000000000000E+00
Au    1.0390262400000001E+01    8.5697440000000025E-01    0.0000000000000000E+00
Au    1.3358908799999995E+01    8.5697440000000025E-01    0.0000000000000000E+00
Au    1.6327555199999992E+01    8.5697440000000025E-01    0.0000000000000000E+00
Au    0.0000000000000000E+00    3.4278976000000010E+00    0.0000000000000000E+00
Au    2.9686463999999986E+00    3.4278976000000010E+00    0.0000000000000000E+00
Au    5.9372927999999972E+00    3.4278976000000010E+00    0.0000000000000000E+00
Au    8.9059391999999953E+00    3.4278976000000010E+00    0.0000000000000000E+00
Au    1.1874585599999994E+01    3.4278976000000010E+00    0.0000000000000000E+00
Au    1.4843231999999993E+01    3.4278976000000010E+00    0.0000000000000000E+00
Au    1.4843231999999993E+00    5.9988207899999999E+00    0.0000000000000000E+00
Au    4.4529695999999976E+00    5.9988207899999999E+00    0.0000000000000000E+00
Au    7.4216159999999967E+00    5.9988207899999999E+00    0.0000000000000000E+00
Au    1.0390262400000001E+01    5.9988207899999999E+00    0.0000000000000000E+00
Au    1.3358908799999995E+01    5.9988207899999999E+00    0.0000000000000000E+00
Au    1.6327555199999992E+01    5.9988207899999999E+00    0.0000000000000000E+00
Au    0.0000000000000000E+00    8.5697439900000028E+00    0.0000000000000000E+00
Au    2.9686463999999986E+00    8.5697439900000028E+00    0.0000000000000000E+00
Au    5.9372927999999972E+00    8.5697439900000028E+00    0.0000000000000000E+00
Au    8.9059391999999953E+00    8.5697439900000028E+00    0.0000000000000000E+00
Au    1.1874585599999994E+01    8.5697439900000028E+00    0.0000000000000000E+00
Au    1.4843231999999993E+01    8.5697439900000028E+00    0.0000000000000000E+00
Au    1.4843231999999993E+00    1.1140667190000002E+01    0.0000000000000000E+00
Au    4.4529695999999976E+00    1.1140667190000002E+01    0.0000000000000000E+00
Au    7.4216159999999967E+00    1.1140667190000002E+01    0.0000000000000000E+00
Au    1.0390262400000001E+01    1.1140667190000002E+01    0.0000000000000000E+00
Au    1.3358908799999995E+01    1.1140667190000002E+01    0.0000000000000000E+00
Au    1.6327555199999992E+01    1.1140667190000002E+01    0.0000000000000000E+00
Au    0.0000000000000000E+00    1.3711590380000011E+01    0.0000000000000000E+00
Au    2.9686463999999986E+00    1.3711590380000011E+01    0.0000000000000000E+00
Au    5.9372927999999972E+00    1.3711590380000011E+01    0.0000000000000000E+00
Au    8.9059391999999953E+00    1.3711590380000011E+01    0.0000000000000000E+00
Au    1.1874585599999994E+01    1.3711590380000011E+01    0.0000000000000000E+00
Au    1.4843231999999993E+01    1.3711590380000011E+01    0.0000000000000000E+00
Au    3.8200555081660527E-07    1.7037695179338279E+00    2.4139441095006271E+00
Au    2.9545429984533307E+00    1.7043533164324212E+00    2.4091911072393630E+00
Au    5.9227517241977505E+00    1.7116605865432182E+00    2.4056559424050823E+00
Au    8.9059396696652833E+00    1.7283777127312221E+00    2.4187608498150985E+00
Au    1.1889127682333463E+01    1.7116601246827412E+00    2.4056552995000224E+00
Au    1.4857335561881170E+01    1.7043538080901104E+00    2.4091920136180867E+00
Au    1.4792782986688668E+00    4.2720682251029540E+00    2.4102962437810089E+00
Au    4.4485798124580951E+00    4.2786788945420486E+00    2.4268968028863376E+00
Au    7.4080712277315035E+00    4.2870274926689920E+00    2.4192007983294150E+00
Au    1.0403809100166500E+01    4.2870286387988514E+00    2.4192046111906178E+00
Au    1.3363296490355106E+01    4.2786806237191817E+00    2.4268984943275527E+00
Au    1.6332601080344023E+01    4.2720685199454929E+00    2.4102966119456375E+00
Au    1.0715610443179234E-06    6.8464549972776148E+00    2.4101634403041068E+00
Au    2.9622175129076731E+00    6.8438188578767294E+00    2.4063018769764311E+00
Au    5.9297215091074831E+00    6.8440083694479270E+00    2.4215940752001299E+00
Au    8.9059398310556066E+00    6.8571153581467241E+00    2.4792226019734311E+00
Au    1.1882156343100133E+01    6.8440101747001467E+00    2.4216003779753978E+00
Au    1.4849662509576770E+01    6.8438178061187207E+00    2.4063015291063965E+00
Au    1.4897548409257015E+00    9.4174399251356498E+00    2.4102386420437649E+00
Au    4.4599472571815451E+00    9.4186023936027592E+00    2.4141071439476494E+00
Au    7.4264039033428801E+00    9.4365549739894572E+00    2.4248156515143866E+00
Au    1.0385477695012732E+01    9.4365521732212567E+00    2.4248185613475717E+00
Au    1.3351932361089951E+01    9.4186031870442601E+00    2.4141092096877763E+00
Au    1.6322123705989743E+01    9.4174400544252297E+00    2.4102374835844045E+00
Au   -3.2835729287504373E-07    1.1983871529979600E+01    2.4104172006941584E+00
Au    2.9701180223795642E+00    1.1991484518090777E+01    2.4078329461562653E+00
Au    5.9340469939491021E+00    1.2007704184310825E+01    2.4042739514536340E+00
Au    8.9059404116111160E+00    1.1997441726286459E+01    2.4293962204880004E+00
Au    1.1877831941964168E+01    1.2007704539504637E+01    2.4042740759089125E+00
Au    1.4841760994505877E+01    1.1991485743959011E+01    2.4078315770063745E+00
Au    1.4807869089125700E+00    1.4557613883745256E+01    2.4101214766277299E+00
Au    4.4443200405413350E+00    1.4569890414304952E+01    2.4086578052110674E+00
Au    7.4211055532257815E+00    1.4580750445071972E+01    2.4046425938811966E+00
Au    1.0390772545146014E+01    1.4580751349998939E+01    2.4046424494562713E+00
Au    1.3367559720681907E+01    1.4569890746005949E+01    2.4086569805464348E+00
Au    1.6331091717787459E+01    1.4557614017090946E+01    2.4101206263851034E+00
Au    7.3531991217568024E-07   -2.0032764901403082E-02    4.8672947307870063E+00
Au    2.9390493090075083E+00   -2.0859577310800983E-02    4.8717054716648915E+00
Au    5.9017993866876433E+00   -2.3029544195344684E-02    4.8674777387456123E+00
Au    8.9059397837245573E+00   -8.3036563437629413E-03    4.8542771834786986E+00
Au    1.1910081351887477E+01   -2.3028486116722157E-02    4.8674764085443432E+00
Au    1.4872829506147786E+01   -2.0857748268223088E-02    4.8717064460060460E+00
Au    1.4606450902022161E+00    2.5454561566783753E+00    4.8745740627366425E+00
Au    4.3932708375676022E+00    2.5140103215807477E+00    4.8645457634291791E+00
Au    7.3602120825853472E+00    2.4758253784346933E+00    4.8577381332622265E+00
Au    1.0451668480276988E+01    2.4758261891650566E+00    4.8577389099389290E+00
Au    1.3418605990096873E+01    2.5140156709479387E+00    4.8645473995293003E+00
Au    1.6351234266125186E+01    2.5454561162254636E+00    4.8745716746349572E+00
Au    4.0883137254080437E-07    5.1269915398588406E+00    4.8690718294635369E+00
Au    2.9041028522296508E+00    5.1188514834152681E+00    4.8646790000757214E+00
Au    5.8035315583921268E+00    5.0590435629279948E+00    4.9033205671223339E+00
Au    8.9059401836135841E+00    4.9194327751053670E+00    4.7915166175800259E+00
Au    1.2008339929765611E+01    5.0590473016428978E+00    4.9033370016348714E+00
Au    1.4907771893604510E+01    5.1188514931445095E+00    4.8646790544497147E+00
Au    1.4548692857059418E+00    7.7111976441148506E+00    4.8666421694069255E+00
Au    4.3447149721087959E+00    7.7155335103409097E+00    4.8599801783672394E+00
Au    7.2338006398353070E+00    7.8105723712228503E+00    4.7992675618614804E+00
Au    1.0578077956195145E+01    7.8105721079698531E+00    4.7992771146916597E+00
Au    1.3467168841878587E+01    7.7155353687362034E+00    4.8599808316075048E+00
Au    1.6357014089086238E+01    7.7111968990012505E+00    4.8666386481208832E+00
Au    7.4282640949248347E-07    1.0282116334100328E+01    4.8610679785988138E+00
Au    2.9385909512537314E+00    1.0296996762464547E+01    4.8591225601027377E+00
Au    5.8748182620779277E+00    1.0366627457108070E+01    4.8548117711706871E+00
Au    8.9059380643545527E+00    1.0417395672576298E+01    4.9174355616869967E+00
Au    1.1937066409636573E+01    1.0366630322836043E+01    4.8548121271715763E+00
Au    1.4873292133859083E+01    1.0296999052005891E+01    4.8591242685290110E+00
Au    1.4724445433280706E+00    1.2847104649616819E+01    4.8626876562088999E+00
Au    4.4210565005090352E+00    1.2872637104716175E+01    4.8665644598614026E+00
Au    7.3990783381971479E+00    1.2902347952235345E+01    4.8558928406541746E+00
Au    1.0412802244255003E+01    1.2902348498311552E+01    4.8558914328485709E+00
Au    1.3390825490080239E+01    1.2872640722434310E+01    4.8665645683791761E+00
Au    1.6339434413937504E+01    1.2847105893990673E+01    4.8626879798239129E+00
Au    7.4207887942133643E+00    5.9805970152199670E+00    6.9391922034516655E+00
Au    1.0391051949653496E+01    5.9806331870039191E+00    6.9392158784535249E+00
Au    8.9059464919363638E+00    8.5343571850904549E+00    6.9480021203505933E+00
Au    8.9058301908595023E+00    6.7797685777109873E+00    9.1042581265483111E+00
Au    8.9046593840923638E+00    6.5660509541205627E+00    1.1711021370816507E+01
Au    8.9084229335107654E+00    8.2202741751917525E+00    1.3742530571334440E+01
Au    8.9037904373103895E+00    7.1902252118400174E+00    1.6140762918334559E+01
Au    8.9079055766882700E+00    5.7561835192901505E+00    1.8328092669545345E+01
Au    8.9050683074034058E+00    7.2119202374456366E+00    2.0482390861343934E+01
Au    8.9058985298646185E+00    6.9006114283871032E+00    2.3082040476240543E+01
Au    8.9059428687618158E+00    5.1664498600673436E+00    2.5272508720368812E+01
Au    7.4326805386823516E+00    7.7142463046574967E+00    2.5270954126353320E+01
Au    1.0379198604733688E+01    7.7142338335445784E+00    2.5270961847760681E+01
Au   -5.8632769864634268E-07    1.7046460437397915E+00    2.7406686998843913E+01
Au    2.9455699348816764E+00    1.7060139818434445E+00    2.7401388870612138E+01
Au    5.8961906132362252E+00    1.6703023059819686E+00    2.7408445198218530E+01
Au    8.9059377026358266E+00    1.6662960304999723E+00    2.7392121968414418E+01
Au    1.1915687326416153E+01    1.6703001864696589E+00    2.7408444759292259E+01
Au    1.4866311404514802E+01    1.7060091273393452E+00    2.7401389648575542E+01
Au    1.4693858713401502E+00    4.2763821004114684E+00    2.7407755588561102E+01
Au    4.4035779543897631E+00    4.2593458480387687E+00    2.7412107356428660E+01
Au    7.3575445570040952E+00    4.1756881976070765E+00    2.7371044227838151E+01
Au    1.0454331641837513E+01    4.1756902539601093E+00    2.7371037123227563E+01
Au    1.3408303879543832E+01    4.2593386453867010E+00    2.7412102616153685E+01
Au    1.6342494668927550E+01    4.2763815390311892E+00    2.7407760441221271E+01
Au    1.3675133412483863E-06    6.8606094154621280E+00    2.7406473244916853E+01
Au    2.9122294894123870E+00    6.8549768957156028E+00    2.7405164995255618E+01
Au    5.8139154608166823E+00    6.8699008459902338E+00    2.7375761066305813E+01
Au    8.9059356372686214E+00    6.8673395608056627E+00    2.7583305074317760E+01
Au    1.1997965447520142E+01    6.8698900519249788E+00    2.7375764609416979E+01
Au    1.4899650965972173E+01    6.8549769123825257E+00    2.7405165880050568E+01
Au    1.4664658424749408E+00    9.4402595778637952E+00    2.7400088773512692E+01
Au    4.3982889852236395E+00    9.4625870071607832E+00    2.7383025823230970E+01
Au    7.3458527726713490E+00    9.5468634362780431E+00    2.7371892099199670E+01
Au    1.0466018671237549E+01    9.5468748992038162E+00    2.7371895673302561E+01
Au    1.3413584407028097E+01    9.4625859401343728E+00    2.7383030640247743E+01
Au    1.6345411765978511E+01    9.4402614765205062E+00    2.7400091937813443E+01
Au   -1.0857638919136924E-07    1.2005600333354575E+01    2.7400962499127239E+01
Au    2.9462306264209119E+00    1.2015448964070746E+01    2.7401146881584332E+01
Au    5.9003492871803234E+00    1.2057490279951804E+01    2.7407371479519998E+01
Au    8.9059351268064582E+00    1.2050925911745111E+01    2.7416056358485573E+01
Au    1.1911528783922137E+01    1.2057491458700001E+01    2.7407370635836003E+01
Au    1.4865647532844191E+01    1.2015449157170734E+01    2.7401146800878820E+01
Au    1.4733044654582221E+00    1.4567148563957955E+01    2.7402874179430807E+01
Au    4.4255093439453494E+00    1.4576519815599370E+01    2.7407598356924971E+01
Au    7.4119499337125196E+00    1.4573220560432359E+01    2.7413127129460204E+01
Au    1.0399927204267399E+01    1.4573219697803584E+01    2.7413129260589642E+01
Au    1.3386369287220653E+01    1.4576518535239208E+01    2.7407599062804355E+01
Au    1.6338573202288469E+01    1.4567149413113723E+01    2.7402871552564104E+01
Au   -6.2808827700077271E-07    2.3316406414210923E-03    2.9856662177200914E+01
Au    2.9636901199510768E+00    5.7144190994402808E-03    2.9857405484919457E+01
Au    5.9354225478252056E+00   -5.3004491192122560E-03    2.9862013400432293E+01
Au    8.9059393042858748E+00    5.0712960699266377E-03    2.9854052649375472E+01
Au    1.1876455338869285E+01   -5.3011947312990790E-03    2.9862014472228424E+01
Au    1.4848188082721302E+01    5.7125906763623654E-03    2.9857406779900774E+01
Au    1.4846151462251769E+00    2.5762642379506411E+00    2.9855702558758964E+01
Au    4.4520240414130319E+00    2.5699423374250912E+00    2.9858630054923623E+01
Au    7.4151835874964975E+00    2.5722715385196402E+00    2.9847316675928351E+01
Au    1.0396695329431433E+01    2.5722722786252938E+00    2.9847312021698983E+01
Au    1.3359854041603157E+01    2.5699410562069240E+00    2.9858629496631028E+01
Au    1.6327263476183006E+01    2.5762623638144477E+00    2.9855704416792733E+01
Au    9.6509105853335764E-07    5.1484749747327712E+00    2.9854408455923956E+01
Au    2.9683001140159568E+00    5.1462623055706791E+00    2.9858282674842854E+01
Au    5.9413818415320989E+00    5.1480603988027260E+00    2.9812900614783516E+01
Au    8.9059396804987419E+00    5.1261384556619092E+00    2.9853467973915652E+01
Au    1.1870496089022295E+01    5.1480561138866152E+00    2.9812898529759746E+01
Au    1.4843577192825659E+01    5.1462621913534701E+00    2.9858282991612487E+01
Au    1.4829448629452986E+00    7.7216446584729166E+00    2.9857128345718166E+01
Au    4.4484723595986235E+00    7.7121242622008577E+00    2.9848138414805703E+01
Au    7.4046272140011453E+00    7.7237022503503345E+00    2.9856840234499753E+01
Au    1.0407252360078235E+01    7.7237020114221906E+00    2.9856839378349779E+01
Au    1.3363404976116334E+01    7.7121238904167235E+00    2.9848135937484383E+01
Au    1.6328934214266145E+01    7.7216434735334403E+00    2.9857128413596431E+01
Au    5.2465641857945250E-07    1.0289749334210905E+01    2.9854577394778492E+01
Au    2.9739239324779452E+00    1.0283882565918171E+01    2.9850722547596508E+01
Au    5.9349654092368205E+00    1.0291453327504160E+01    2.9848307540445262E+01
Au    8.9059356113138453E+00    1.0273345425624385E+01    2.9813320783475518E+01
Au    1.1876912183657135E+01    1.0291452527209657E+01    2.9848307245894997E+01
Au    1.4837955796038385E+01    1.0283883830521486E+01    2.9850724634150183E+01
Au    1.4825744862365025E+00    1.2856054289120646E+01    2.9857442016670962E+01
Au    4.4433408218843331E+00    1.2858713708930839E+01    2.9860093194153745E+01
Au    7.4195987384400359E+00    1.2851321126536924E+01    2.9859423036162426E+01
Au    1.0392278359517356E+01    1.2851319648426445E+01    2.9859422856947809E+01
Au    1.3368536751093844E+01    1.2858713346039627E+01    2.9860093903826630E+01
Au    1.6329303975315170E+01    1.2856053782387155E+01    2.9857442124963779E+01
     &END COORD
     &KIND Au
       BASIS_SET TZVP-MOLOPT-SR-GTH-q11
       ELEMENT Au
       POTENTIAL GTH-PBE-q11
       &POTENTIAL
1 0 10
0.5900000000000000E+00 1  0.1051717881000000E+02
3
0.5438473300000000E+00 2  0.5786811030000000E+01 -0.2250679660000000E+01
0.2905614950000000E+01
0.6091729800000000E+00 2  0.4284048730000000E+01 -0.4071285200000000E+01
0.4817209620000000E+01
0.4373092200000000E+00 2 -0.7403281240000000E+01  0.3010193070000000E+01
-0.3413238110000000E+01
       &END POTENTIAL
     &END KIND
     &TOPOLOGY
       COORD_FILE_NAME junction_65.xyz
       COORD_FILE_FORMAT  XYZ
       NUMBER_OF_ATOMS  193
       MULTIPLE_UNIT_CELL  1 1 1
     &END TOPOLOGY
   &END SUBSYS
   &PRINT
     &TOTAL_NUMBERS  ON
     &END TOTAL_NUMBERS
   &END PRINT
 &END FORCE_EVAL
