 # Version information for this restart file 
 # current date 2022-05-03 19:57:46.324
 # current working dir /rds/general/user/jj1921/home/junction/ortho/cell_65
 # Program compiled at                              Thu 12 Jul 13:52:12 BST 2018
 # Program compiled on                                      build-2.hpc.ic.ac.uk
 # Program compiled for                                       Linux-x86-64-intel
 # Source code revision number                                         svn:18464
 &GLOBAL
   PRINT_LEVEL  MEDIUM
   PROJECT_NAME Au_junction
   RUN_TYPE  CELL_OPT
 &END GLOBAL
 &MOTION
   &CELL_OPT
     OPTIMIZER  BFGS
     STEP_START_VAL  117
     TYPE  DIRECT_CELL_OPT
     KEEP_ANGLES  T
     KEEP_SYMMETRY  T
     CONSTRAINT  XY
   &END CELL_OPT
   &CONSTRAINT
     &FIXED_ATOMS
       COMPONENTS_TO_FIX  XYZ
       LIST  1..36
     &END FIXED_ATOMS
   &END CONSTRAINT
   &PRINT
     &TRAJECTORY  SILENT
       &EACH
         CELL_OPT  1
       &END EACH
     &END TRAJECTORY
   &END PRINT
 &END MOTION
 &FORCE_EVAL
   METHOD  QS
   STRESS_TENSOR  ANALYTICAL
   &DFT
     BASIS_SET_FILE_NAME /rds/general/user/jj1921/home/BASIS_COM_MOLOPT_GTH
     POTENTIAL_FILE_NAME /rds/general/user/jj1921/home/GTH_POTENTIALS
     &SCF
       MAX_SCF  500
       EPS_SCF     9.9999999999999995E-08
       CHOLESKY  INVERSE
       SCF_GUESS  ATOMIC
       ADDED_MOS  20
       &DIAGONALIZATION  T
         ALGORITHM  STANDARD
       &END DIAGONALIZATION
       &SMEAR  T
         METHOD  FERMI_DIRAC
         ELECTRONIC_TEMPERATURE     3.0000000000000000E+02
       &END SMEAR
       &MIXING  T
         METHOD  BROYDEN_MIXING
         ALPHA     4.0000000000000002E-01
         BETA     5.0000000000000000E-01
         NBUFFER  8
       &END MIXING
     &END SCF
     &QS
       EPS_DEFAULT     1.0000000000000000E-14
       METHOD  GPW
     &END QS
     &MGRID
       NGRIDS  4
       CUTOFF     5.0000000000000000E+02
       REL_CUTOFF     4.0000000000000000E+01
     &END MGRID
     &XC
       DENSITY_CUTOFF     1.0000000000000000E-10
       GRADIENT_CUTOFF     1.0000000000000000E-10
       TAU_CUTOFF     1.0000000000000000E-10
       &XC_FUNCTIONAL  NO_SHORTCUT
         &PBE  T
         &END PBE
       &END XC_FUNCTIONAL
     &END XC
     &KPOINTS
       SCHEME MONKHORST-PACK 4 4 1
       FULL_GRID  T
     &END KPOINTS
   &END DFT
   &SUBSYS
     &CELL
       A     1.7811878396732904E+01    0.0000000000000000E+00    0.0000000000000000E+00
       B     0.0000000000000000E+00    1.5425539180689926E+01    0.0000000000000000E+00
       C     0.0000000000000000E+00    0.0000000000000000E+00    3.2748463287627928E+01
       PERIODIC  XYZ
       MULTIPLE_UNIT_CELL  1 1 1
       SYMMETRY  ORTHORHOMBIC
     &END CELL
     &COORD
Au    1.4843231999999993E+00    8.5697439999999980E-01    0.0000000000000000E+00
Au    4.4529695999999976E+00    8.5697439999999980E-01    0.0000000000000000E+00
Au    7.4216159999999967E+00    8.5697439999999980E-01    0.0000000000000000E+00
Au    1.0390262399999997E+01    8.5697439999999980E-01    0.0000000000000000E+00
Au    1.3358908799999995E+01    8.5697439999999980E-01    0.0000000000000000E+00
Au    1.6327555199999992E+01    8.5697439999999980E-01    0.0000000000000000E+00
Au    0.0000000000000000E+00    3.4278975999999992E+00    0.0000000000000000E+00
Au    2.9686463999999986E+00    3.4278975999999992E+00    0.0000000000000000E+00
Au    5.9372927999999972E+00    3.4278975999999992E+00    0.0000000000000000E+00
Au    8.9059391999999953E+00    3.4278975999999992E+00    0.0000000000000000E+00
Au    1.1874585599999994E+01    3.4278975999999992E+00    0.0000000000000000E+00
Au    1.4843231999999993E+01    3.4278975999999992E+00    0.0000000000000000E+00
Au    1.4843231999999993E+00    5.9988207899999981E+00    0.0000000000000000E+00
Au    4.4529695999999976E+00    5.9988207899999981E+00    0.0000000000000000E+00
Au    7.4216159999999967E+00    5.9988207899999981E+00    0.0000000000000000E+00
Au    1.0390262399999997E+01    5.9988207899999981E+00    0.0000000000000000E+00
Au    1.3358908799999995E+01    5.9988207899999981E+00    0.0000000000000000E+00
Au    1.6327555199999992E+01    5.9988207899999981E+00    0.0000000000000000E+00
Au    0.0000000000000000E+00    8.5697439899999992E+00    0.0000000000000000E+00
Au    2.9686463999999986E+00    8.5697439899999992E+00    0.0000000000000000E+00
Au    5.9372927999999972E+00    8.5697439899999992E+00    0.0000000000000000E+00
Au    8.9059391999999953E+00    8.5697439899999992E+00    0.0000000000000000E+00
Au    1.1874585599999994E+01    8.5697439899999992E+00    0.0000000000000000E+00
Au    1.4843231999999993E+01    8.5697439899999992E+00    0.0000000000000000E+00
Au    1.4843231999999993E+00    1.1140667189999997E+01    0.0000000000000000E+00
Au    4.4529695999999976E+00    1.1140667189999997E+01    0.0000000000000000E+00
Au    7.4216159999999967E+00    1.1140667189999997E+01    0.0000000000000000E+00
Au    1.0390262399999997E+01    1.1140667189999997E+01    0.0000000000000000E+00
Au    1.3358908799999995E+01    1.1140667189999997E+01    0.0000000000000000E+00
Au    1.6327555199999992E+01    1.1140667189999997E+01    0.0000000000000000E+00
Au    0.0000000000000000E+00    1.3711590380000002E+01    0.0000000000000000E+00
Au    2.9686463999999986E+00    1.3711590380000002E+01    0.0000000000000000E+00
Au    5.9372927999999972E+00    1.3711590380000002E+01    0.0000000000000000E+00
Au    8.9059391999999953E+00    1.3711590380000002E+01    0.0000000000000000E+00
Au    1.1874585599999994E+01    1.3711590380000002E+01    0.0000000000000000E+00
Au    1.4843231999999993E+01    1.3711590380000002E+01    0.0000000000000000E+00
Au    1.3000369485469698E-08    1.6982518263316564E+00    2.4093902863975538E+00
Au    2.9535925471751789E+00    1.7030708644319741E+00    2.4078091910511832E+00
Au    5.9194404213107470E+00    1.7108678932505870E+00    2.4061920033733872E+00
Au    8.9059391948558968E+00    1.7367421920618806E+00    2.4169354227743445E+00
Au    1.1892437985059543E+01    1.7108678781656053E+00    2.4061919911329124E+00
Au    1.4858285874816250E+01    1.7030708444116134E+00    2.4078091984425276E+00
Au    1.4782235300601709E+00    4.2675509272272603E+00    2.4061816614499656E+00
Au    4.4455125405154758E+00    4.2787823535290013E+00    2.4252189614999540E+00
Au    7.4076648600319972E+00    4.2899457079125902E+00    2.4205897730497501E+00
Au    1.0404213519916917E+01    4.2899457113604882E+00    2.4205898045766179E+00
Au    1.3366365932180384E+01    4.2787823138567598E+00    2.4252188314779999E+00
Au    1.6333654915669314E+01    4.2675509294902447E+00    2.4061816651507075E+00
Au    1.1138008999620248E-08    6.8420142773154193E+00    2.4060169560015967E+00
Au    2.9580769964473337E+00    6.8389815244829721E+00    2.4047717903894363E+00
Au    5.9290543433255296E+00    6.8419502581447267E+00    2.4166469683318232E+00
Au    8.9059391987233951E+00    6.8576838760693093E+00    2.4788564465143428E+00
Au    1.1882824046355598E+01    6.8419502821159881E+00    2.4166469974873563E+00
Au    1.4853801419044068E+01    6.8389815239747156E+00    2.4047717840925973E+00
Au    1.4895687002842697E+00    9.4120914029503169E+00    2.4089200421204291E+00
Au    4.4619591277533450E+00    9.4139876424500049E+00    2.4133793531270613E+00
Au    7.4266357883897429E+00    9.4414889913960849E+00    2.4132547301375333E+00
Au    1.0385242623420044E+01    9.4414889928878090E+00    2.4132547157185429E+00
Au    1.3349919278230310E+01    9.4139876580615596E+00    2.4133793718099228E+00
Au    1.6322309699344228E+01    9.4120914051236948E+00    2.4089200345698112E+00
Au   -2.0939120276225551E-10    1.1977692913559663E+01    2.4110692057515490E+00
Au    2.9743516650841673E+00    1.1985336242475093E+01    2.4081496820283870E+00
Au    5.9355840374217177E+00    1.2012421436067518E+01    2.4022742802466888E+00
Au    8.9059392017741299E+00    1.2010834014747790E+01    2.4214003670062811E+00
Au    1.1876294367591411E+01    1.2012421438662130E+01    2.4022742886689574E+00
Au    1.4837526737180124E+01    1.1985336251436888E+01    2.4081496728587144E+00
Au    1.4819898008644847E+00    1.4552426148466672E+01    2.4106973884641389E+00
Au    4.4427679370126532E+00    1.4566919457705371E+01    2.4066193324327636E+00
Au    7.4216807132248377E+00    1.4590691918523188E+01    2.4027248298461314E+00
Au    1.0390197679876540E+01    1.4590691919099880E+01    2.4027248311091203E+00
Au    1.3369110467207907E+01    1.4566919457040942E+01    2.4066193262761084E+00
Au    1.6329888609023872E+01    1.4552426137271603E+01    2.4106973804925951E+00
Au    1.0596463779128104E-08   -2.5259994231449350E-02    4.8664902572366966E+00
Au    2.9341113404694186E+00   -2.2778267565984531E-02    4.8713654096728245E+00
Au    5.8953657826607841E+00   -2.1204780449640241E-02    4.8680929734705334E+00
Au    8.9059392015285717E+00    1.4965701029014927E-03    4.8537035214740420E+00
Au    1.1916512615299984E+01   -2.1204779793829870E-02    4.8680929656837684E+00
Au    1.4877767076593262E+01   -2.2778287447042227E-02    4.8713654170296712E+00
Au    1.4568830053179174E+00    2.5402500059417639E+00    4.8731285332479413E+00
Au    4.3857800450658102E+00    2.5141005933428966E+00    4.8662180220219797E+00
Au    7.3517694447764077E+00    2.4758726880169379E+00    4.8531422349907123E+00
Au    1.0460108959655827E+01    2.4758726991563536E+00    4.8531422307227308E+00
Au    1.3426098392179798E+01    2.5141005468160253E+00    4.8662180195947720E+00
Au    1.6354995423725999E+01    2.5402499965233560E+00    4.8731285130893198E+00
Au    3.5259637558383580E-08    5.1196614418437569E+00    4.8675657450151970E+00
Au    2.8988461086398436E+00    5.1116007932846692E+00    4.8653418307805190E+00
Au    5.8022413739273233E+00    5.0587210860788314E+00    4.8988288917291527E+00
Au    8.9059391831787362E+00    4.9055379174181155E+00    4.7918613231201670E+00
Au    1.2009637198959323E+01    5.0587209588335451E+00    4.8988285541452798E+00
Au    1.4913032361182754E+01    5.1116007930820047E+00    4.8653418152688310E+00
Au    1.4516497140079274E+00    7.7031326879176385E+00    4.8669120758888917E+00
Au    4.3406898666218412E+00    7.7037554550085057E+00    4.8532948955012678E+00
Au    7.2221609490443184E+00    7.8310985146594705E+00    4.7795790844986099E+00
Au    1.0589717439822971E+01    7.8310985771771433E+00    4.7795790749591678E+00
Au    1.3471188561643743E+01    7.7037554680248181E+00    4.8532948972350427E+00
Au    1.6360228714863943E+01    7.7031326881272708E+00    4.8669120454901948E+00
Au    5.9572686147315073E-09    1.0270191463339355E+01    4.8582863501872966E+00
Au    2.9402912563266486E+00    1.0289660171704879E+01    4.8557475861409705E+00
Au    5.8724160756883288E+00    1.0379696016784704E+01    4.8460187896711036E+00
Au    8.9059391792706997E+00    1.0436576449173710E+01    4.8878595397674873E+00
Au    1.1939462368535146E+01    1.0379696057756112E+01    4.8460188095268286E+00
Au    1.4871587171274046E+01    1.0289660186853473E+01    4.8557476015368310E+00
Au    1.4719278704974577E+00    1.2838327121085944E+01    4.8609479488168024E+00
Au    4.4154569874662997E+00    1.2876352735874125E+01    4.8668951235563798E+00
Au    7.3970410236245430E+00    1.2915832915518912E+01    4.8511613119795616E+00
Au    1.0414837379815731E+01    1.2915832916487076E+01    4.8511613082065876E+00
Au    1.3396421434377556E+01    1.2876352763610514E+01    4.8668951310292945E+00
Au    1.6339950531682639E+01    1.2838327124401024E+01    4.8609479515145706E+00
Au    7.4122356178877284E+00    6.0106818143025613E+00    6.9198199684561077E+00
Au    1.0399643216244797E+01    6.0106818831635831E+00    6.9198197277620874E+00
Au    8.9059393806530984E+00    8.5633824951449835E+00    6.9238013989134286E+00
Au    8.9059397439249768E+00    6.8180049154365703E+00    9.0899920753569745E+00
Au    8.9059214556872188E+00    6.2540113401064445E+00    1.1632769550264154E+01
Au    8.9059791568258628E+00    7.6796309536294949E+00    1.3837168990961596E+01
Au    8.9058947998939484E+00    7.2361793521871141E+00    1.6431776168823841E+01
Au    8.9059670592571543E+00    5.9601204920346822E+00    1.8724295637903488E+01
Au    8.9059313834126659E+00    7.2756283600272136E+00    2.0976890165069420E+01
Au    8.9059392175734562E+00    6.8654257580115381E+00    2.3563412455257644E+01
Au    8.9059391978201674E+00    5.1496604711165546E+00    2.5761525594882219E+01
Au    7.4338320774731734E+00    7.7009604447161930E+00    2.5748176052683284E+01
Au    1.0378046451097800E+01    7.7009604665511748E+00    2.5748176265160932E+01
Au   -5.2519713921011560E-09    1.7110568310144487E+00    2.7895233486491954E+01
Au    2.9444093658490837E+00    1.7097001119634248E+00    2.7889879453873565E+01
Au    5.8934463347959403E+00    1.6710417205418597E+00    2.7896416725241281E+01
Au    8.9059391963861483E+00    1.6657051497574342E+00    2.7881488532226392E+01
Au    1.1918432058474844E+01    1.6710417191601463E+00    2.7896416733578388E+01
Au    1.4867469051512785E+01    1.7097000808233378E+00    2.7889879456794514E+01
Au    1.4676140790023811E+00    4.2814956275674323E+00    2.7892760199448489E+01
Au    4.4029954309131636E+00    4.2637646815777988E+00    2.7902107936337998E+01
Au    7.3549115717935871E+00    4.1763861783050453E+00    2.7865849280347732E+01
Au    1.0456966776908704E+01    4.1763862122509101E+00    2.7865849192040645E+01
Au    1.3408882990067847E+01    4.2637646303529610E+00    2.7902107915412813E+01
Au    1.6344264327889114E+01    4.2814956226708141E+00    2.7892760235013622E+01
Au    8.2091780424802373E-09    6.8608032044660181E+00    2.7888414743371573E+01
Au    2.9111266187312146E+00    6.8591198700988585E+00    2.7890590576336344E+01
Au    5.8121893595376228E+00    6.8717768311223537E+00    2.7860568706667280E+01
Au    8.9059391712292086E+00    6.8733874531031143E+00    2.8067576001333048E+01
Au    1.1999689096876546E+01    6.8717767292856680E+00    2.7860568766053422E+01
Au    1.4900751807063905E+01    6.8591198729795835E+00    2.7890590584281753E+01
Au    1.4660415858885127E+00    9.4410912137649028E+00    2.7884328043290541E+01
Au    4.3948385045661924E+00    9.4637133938146434E+00    2.7866751631582868E+01
Au    7.3418240084225648E+00    9.5399656804373265E+00    2.7850865142896986E+01
Au    1.0470054361347181E+01    9.5399658216237633E+00    2.7850865262897088E+01
Au    1.3417039871803482E+01    9.4637133842373675E+00    2.7866751662833032E+01
Au    1.6345836816814195E+01    9.4410912234134496E+00    2.7884328063885029E+01
Au    3.3807271410067146E-09    1.2005405977792933E+01    2.7886914051908885E+01
Au    2.9469876737123455E+00    1.2015724573753966E+01    2.7887581005046471E+01
Au    5.9039202581675312E+00    1.2055604967923173E+01    2.7889986238996556E+01
Au    8.9059391670478814E+00    1.2047310825073041E+01    2.7900885864608533E+01
Au    1.1907958157341973E+01    1.2055604996718115E+01    2.7889986238151572E+01
Au    1.4864890730582671E+01    1.2015724568017180E+01    2.7887581012426498E+01
Au    1.4740518105260856E+00    1.4569428014632340E+01    2.7893151749615626E+01
Au    4.4259702977479876E+00    1.4576133797284790E+01    2.7890687151247871E+01
Au    7.4105848916804211E+00    1.4574134501297188E+01    2.7895031515834056E+01
Au    1.0401293507093717E+01    1.4574134494608801E+01    2.7895031527276529E+01
Au    1.3385908107884543E+01    1.4576133800754546E+01    2.7890687153997369E+01
Au    1.6337826585011477E+01    1.4569428025294942E+01    2.7893151734741505E+01
Au   -8.3678504917147495E-10    5.7313568342301320E-03    3.0340286596079768E+01
Au    2.9678143953752691E+00    7.7502010387959976E-03    3.0341052755471669E+01
Au    5.9363730821421887E+00   -8.0978644828012779E-03    3.0345112379010320E+01
Au    8.9059392040105454E+00    4.0484733671162700E-03    3.0337430756062677E+01
Au    1.1875505316155811E+01   -8.0978707243527515E-03    3.0345112387916785E+01
Au    1.4844063999173658E+01    7.7502004441233506E-03    3.0341052762263448E+01
Au    1.4836926404321364E+00    2.5821202489519361E+00    3.0340704021060159E+01
Au    4.4533559223817969E+00    2.5735560749363966E+00    3.0344287228016793E+01
Au    7.4139733161573993E+00    2.5717932844657643E+00    3.0331981991061522E+01
Au    1.0397905085968794E+01    2.5717933069733814E+00    3.0331981949642696E+01
Au    1.3358522471831380E+01    2.5735560670557631E+00    3.0344287234768306E+01
Au    1.6328185763987058E+01    2.5821202374102015E+00    3.0340704027401486E+01
Au    3.1309048304925946E-09    5.1530610058615132E+00    3.0340122540790031E+01
Au    2.9691822960999104E+00    5.1514536673795641E+00    3.0343877039216139E+01
Au    5.9428743901993792E+00    5.1499888950067882E+00    3.0299545764901936E+01
Au    8.9059391962114471E+00    5.1241973346232808E+00    3.0336193558084098E+01
Au    1.1869003997319442E+01    5.1499888624494741E+00    3.0299545738938249E+01
Au    1.4842696094198452E+01    5.1514536732265590E+00    3.0343877058211486E+01
Au    1.4817807307922619E+00    7.7229846947371019E+00    3.0341903401493528E+01
Au    4.4494337677886397E+00    7.7129705754010205E+00    3.0331924926733222E+01
Au    7.4039507662180482E+00    7.7232460007728374E+00    3.0342919713772339E+01
Au    1.0407927636813099E+01    7.7232460002313426E+00    3.0342919712810733E+01
Au    1.3362444618351340E+01    7.7129705689844794E+00    3.0331924912054401E+01
Au    1.6330097678186327E+01    7.7229846921578407E+00    3.0341903403505292E+01
Au    6.7251511743389227E-09    1.0290256431604183E+01    3.0340447336527227E+01
Au    2.9750969732254267E+00    1.0281370391564387E+01    3.0334188239084952E+01
Au    5.9370216003582481E+00    1.0288984990102190E+01    3.0329878865048563E+01
Au    8.9059391682374507E+00    1.0268933484702314E+01    3.0290089274130999E+01
Au    1.1874856807994160E+01    1.0288984990678374E+01    3.0329878879278144E+01
Au    1.4836781437140226E+01    1.0281370396429294E+01    3.0334188258454759E+01
Au    1.4841267060885801E+00    1.2855496588558664E+01    3.0341643602666274E+01
Au    4.4433859319060911E+00    1.2857701349151492E+01    3.0341827273809166E+01
Au    7.4212248310787716E+00    1.2848304070379438E+01    3.0343740079295038E+01
Au    1.0390653558865157E+01    1.2848304062400205E+01    3.0343740076488597E+01
Au    1.3368492467948974E+01    1.2857701349493645E+01    3.0341827283214830E+01
Au    1.6327751697081908E+01    1.2855496585685678E+01    3.0341643597752416E+01
     &END COORD
     &KIND Au
       BASIS_SET TZVP-MOLOPT-SR-GTH-q11
       ELEMENT Au
       POTENTIAL GTH-PBE-q11
       &POTENTIAL
1 0 10
0.5900000000000000E+00 1  0.1051717881000000E+02
3
0.5438473300000000E+00 2  0.5786811030000000E+01 -0.2250679660000000E+01
0.2905614950000000E+01
0.6091729800000000E+00 2  0.4284048730000000E+01 -0.4071285200000000E+01
0.4817209620000000E+01
0.4373092200000000E+00 2 -0.7403281240000000E+01  0.3010193070000000E+01
-0.3413238110000000E+01
       &END POTENTIAL
     &END KIND
     &TOPOLOGY
       COORD_FILE_NAME junction_65.xyz
       COORD_FILE_FORMAT  XYZ
       NUMBER_OF_ATOMS  193
       MULTIPLE_UNIT_CELL  1 1 1
     &END TOPOLOGY
   &END SUBSYS
   &PRINT
     &TOTAL_NUMBERS  ON
     &END TOTAL_NUMBERS
   &END PRINT
 &END FORCE_EVAL
