 # Version information for this restart file 
 # current date 2022-05-06 10:06:03.552
 # current working dir /rds/general/user/jj1921/home/junction/ortho/cell_65
 # Program compiled at                              Thu 12 Jul 13:52:12 BST 2018
 # Program compiled on                                      build-2.hpc.ic.ac.uk
 # Program compiled for                                       Linux-x86-64-intel
 # Source code revision number                                         svn:18464
 &GLOBAL
   PRINT_LEVEL  MEDIUM
   PROJECT_NAME Au_junction
   RUN_TYPE  CELL_OPT
 &END GLOBAL
 &MOTION
   &CELL_OPT
     OPTIMIZER  BFGS
     STEP_START_VAL  159
     TYPE  DIRECT_CELL_OPT
     KEEP_ANGLES  T
     KEEP_SYMMETRY  T
     CONSTRAINT  XY
   &END CELL_OPT
   &CONSTRAINT
     &FIXED_ATOMS
       COMPONENTS_TO_FIX  XYZ
       LIST  1..36
     &END FIXED_ATOMS
   &END CONSTRAINT
   &PRINT
     &TRAJECTORY  SILENT
       &EACH
         CELL_OPT  1
       &END EACH
     &END TRAJECTORY
   &END PRINT
 &END MOTION
 &FORCE_EVAL
   METHOD  QS
   STRESS_TENSOR  ANALYTICAL
   &DFT
     BASIS_SET_FILE_NAME /rds/general/user/jj1921/home/BASIS_COM_MOLOPT_GTH
     POTENTIAL_FILE_NAME /rds/general/user/jj1921/home/GTH_POTENTIALS
     &SCF
       MAX_SCF  500
       EPS_SCF     9.9999999999999995E-08
       CHOLESKY  INVERSE
       SCF_GUESS  ATOMIC
       ADDED_MOS  20
       &DIAGONALIZATION  T
         ALGORITHM  STANDARD
       &END DIAGONALIZATION
       &SMEAR  T
         METHOD  FERMI_DIRAC
         ELECTRONIC_TEMPERATURE     3.0000000000000000E+02
       &END SMEAR
       &MIXING  T
         METHOD  BROYDEN_MIXING
         ALPHA     4.0000000000000002E-01
         BETA     5.0000000000000000E-01
         NBUFFER  8
       &END MIXING
     &END SCF
     &QS
       EPS_DEFAULT     1.0000000000000000E-14
       METHOD  GPW
     &END QS
     &MGRID
       NGRIDS  4
       CUTOFF     5.0000000000000000E+02
       REL_CUTOFF     4.0000000000000000E+01
     &END MGRID
     &XC
       DENSITY_CUTOFF     1.0000000000000000E-10
       GRADIENT_CUTOFF     1.0000000000000000E-10
       TAU_CUTOFF     1.0000000000000000E-10
       &XC_FUNCTIONAL  NO_SHORTCUT
         &PBE  T
         &END PBE
       &END XC_FUNCTIONAL
     &END XC
     &KPOINTS
       SCHEME MONKHORST-PACK 4 4 1
       FULL_GRID  T
     &END KPOINTS
   &END DFT
   &SUBSYS
     &CELL
       A     1.7811878396732908E+01    0.0000000000000000E+00    0.0000000000000000E+00
       B     0.0000000000000000E+00    1.5425539180689926E+01    0.0000000000000000E+00
       C     0.0000000000000000E+00    0.0000000000000000E+00    3.2328910263769785E+01
       PERIODIC  XYZ
       MULTIPLE_UNIT_CELL  1 1 1
       SYMMETRY  ORTHORHOMBIC
     &END CELL
     &COORD
Au    1.4843231999999993E+00    8.5697439999999980E-01    0.0000000000000000E+00
Au    4.4529695999999976E+00    8.5697439999999980E-01    0.0000000000000000E+00
Au    7.4216159999999967E+00    8.5697439999999980E-01    0.0000000000000000E+00
Au    1.0390262399999999E+01    8.5697439999999980E-01    0.0000000000000000E+00
Au    1.3358908799999995E+01    8.5697439999999980E-01    0.0000000000000000E+00
Au    1.6327555199999992E+01    8.5697439999999980E-01    0.0000000000000000E+00
Au    0.0000000000000000E+00    3.4278975999999992E+00    0.0000000000000000E+00
Au    2.9686463999999986E+00    3.4278975999999992E+00    0.0000000000000000E+00
Au    5.9372927999999972E+00    3.4278975999999992E+00    0.0000000000000000E+00
Au    8.9059391999999953E+00    3.4278975999999992E+00    0.0000000000000000E+00
Au    1.1874585599999994E+01    3.4278975999999992E+00    0.0000000000000000E+00
Au    1.4843231999999993E+01    3.4278975999999992E+00    0.0000000000000000E+00
Au    1.4843231999999993E+00    5.9988207899999981E+00    0.0000000000000000E+00
Au    4.4529695999999976E+00    5.9988207899999981E+00    0.0000000000000000E+00
Au    7.4216159999999967E+00    5.9988207899999981E+00    0.0000000000000000E+00
Au    1.0390262399999999E+01    5.9988207899999981E+00    0.0000000000000000E+00
Au    1.3358908799999995E+01    5.9988207899999981E+00    0.0000000000000000E+00
Au    1.6327555199999992E+01    5.9988207899999981E+00    0.0000000000000000E+00
Au    0.0000000000000000E+00    8.5697439900000010E+00    0.0000000000000000E+00
Au    2.9686463999999986E+00    8.5697439900000010E+00    0.0000000000000000E+00
Au    5.9372927999999972E+00    8.5697439900000010E+00    0.0000000000000000E+00
Au    8.9059391999999953E+00    8.5697439900000010E+00    0.0000000000000000E+00
Au    1.1874585599999994E+01    8.5697439900000010E+00    0.0000000000000000E+00
Au    1.4843231999999993E+01    8.5697439900000010E+00    0.0000000000000000E+00
Au    1.4843231999999993E+00    1.1140667189999997E+01    0.0000000000000000E+00
Au    4.4529695999999976E+00    1.1140667189999997E+01    0.0000000000000000E+00
Au    7.4216159999999967E+00    1.1140667189999997E+01    0.0000000000000000E+00
Au    1.0390262399999999E+01    1.1140667189999997E+01    0.0000000000000000E+00
Au    1.3358908799999995E+01    1.1140667189999997E+01    0.0000000000000000E+00
Au    1.6327555199999992E+01    1.1140667189999997E+01    0.0000000000000000E+00
Au    0.0000000000000000E+00    1.3711590380000004E+01    0.0000000000000000E+00
Au    2.9686463999999986E+00    1.3711590380000004E+01    0.0000000000000000E+00
Au    5.9372927999999972E+00    1.3711590380000004E+01    0.0000000000000000E+00
Au    8.9059391999999953E+00    1.3711590380000004E+01    0.0000000000000000E+00
Au    1.1874585599999994E+01    1.3711590380000004E+01    0.0000000000000000E+00
Au    1.4843231999999993E+01    1.3711590380000004E+01    0.0000000000000000E+00
Au    2.9479226001088178E-07    1.7045741961779390E+00    2.4129267276352393E+00
Au    2.9547054144727278E+00    1.7040411791048344E+00    2.4087879477111858E+00
Au    5.9205019536178733E+00    1.7101039763585997E+00    2.4067954918383299E+00
Au    8.9059392645842816E+00    1.7277391728345373E+00    2.4172546191867372E+00
Au    1.1891376833009293E+01    1.7101035769977826E+00    2.4067952993132491E+00
Au    1.4857173546817757E+01    1.7040407721252750E+00    2.4087881285716137E+00
Au    1.4765446474641559E+00    4.2737029832578797E+00    2.4074050674181029E+00
Au    4.4420387740754803E+00    4.2782828344526003E+00    2.4278980020996301E+00
Au    7.4036512934166918E+00    4.2845047041673556E+00    2.4163318171382602E+00
Au    1.0408227422245389E+01    4.2845047086126149E+00    2.4163322388109596E+00
Au    1.3369840961867050E+01    4.2782821001744722E+00    2.4278962954850716E+00
Au    1.6335334794128705E+01    4.2737030049982350E+00    2.4074051788597974E+00
Au    3.7831334576667135E-07    6.8486939621986229E+00    2.4078711395265038E+00
Au    2.9590442777521386E+00    6.8465551713395145E+00    2.4088912696213245E+00
Au    5.9270676597805565E+00    6.8427895045852782E+00    2.4187752320081337E+00
Au    8.9059393193997085E+00    6.8556296431029784E+00    2.4738759547917448E+00
Au    1.1884811070820676E+01    6.8427897022295525E+00    2.4187758011900735E+00
Au    1.4852834802492941E+01    6.8465549435156703E+00    2.4088911782746183E+00
Au    1.4881236611984017E+00    9.4198848742748353E+00    2.4115431612294618E+00
Au    4.4589855818947388E+00    9.4204774578731847E+00    2.4157230653068820E+00
Au    7.4268838774240384E+00    9.4408534389924679E+00    2.4189207753765256E+00
Au    1.0384995040562277E+01    9.4408534500248642E+00    2.4189205236147822E+00
Au    1.3352893135633609E+01    9.4204776949778477E+00    2.4157235947491471E+00
Au    1.6323754808850399E+01    9.4198848649704665E+00    2.4115429505224877E+00
Au   -2.6308466857920030E-08    1.1986295759827529E+01    2.4137279985835876E+00
Au    2.9680324373343465E+00    1.1991922048960708E+01    2.4109720887835424E+00
Au    5.9346034573066362E+00    1.2007652237248442E+01    2.4073015205181933E+00
Au    8.9059392576491128E+00    1.2002473771829003E+01    2.4333841979964932E+00
Au    1.1877275053776414E+01    1.2007652422281163E+01    2.4073015963526254E+00
Au    1.4843846118491671E+01    1.1991922243528300E+01    2.4109718083727549E+00
Au    1.4791628790168114E+00    1.4558199295973372E+01    2.4119383596924311E+00
Au    4.4435685598820003E+00    1.4567613990756197E+01    2.4077131235081874E+00
Au    7.4198899200573862E+00    1.4580344164724107E+01    2.4047555180423248E+00
Au    1.0391988330738483E+01    1.4580344258359709E+01    2.4047555555223750E+00
Au    1.3368310181937773E+01    1.4567613920973750E+01    2.4077129257265728E+00
Au    1.6332715812417604E+01    1.4558199189039774E+01    2.4119381229516592E+00
Au    3.1673452921826157E-07   -1.5016781932198152E-02    4.8729072596286427E+00
Au    2.9374593802093139E+00   -1.9752255862016514E-02    4.8733089874575590E+00
Au    5.8997703368619412E+00   -2.2585138993955672E-02    4.8682840502344051E+00
Au    8.9059392396776342E+00   -7.9191190886366940E-03    4.8567717212114472E+00
Au    1.1912108414204177E+01   -2.2585409782319259E-02    4.8682837869582283E+00
Au    1.4874419573333046E+01   -1.9752556930544302E-02    4.8733092880583948E+00
Au    1.4614797584822381E+00    2.5489774035331254E+00    4.8764967844296905E+00
Au    4.3913450614446221E+00    2.5159365933486191E+00    4.8650269619656283E+00
Au    7.3589974958373876E+00    2.4771517174029114E+00    4.8548181432257600E+00
Au    1.0452881627981602E+01    2.4771513568592720E+00    4.8548182055829026E+00
Au    1.3420534136250073E+01    2.5159360074768702E+00    4.8650271580275808E+00
Au    1.6350399473445027E+01    2.5489771865181297E+00    4.8764964319893975E+00
Au    7.3495880767846706E-07    5.1314147273660176E+00    4.8712988392448517E+00
Au    2.9028774868153988E+00    5.1213913140168179E+00    4.8663266925259627E+00
Au    5.8043262099867832E+00    5.0611691335937596E+00    4.8985228399933600E+00
Au    8.9059403640005108E+00    4.9195946696525592E+00    4.7810085690971542E+00
Au    1.2007554210106171E+01    5.0611672643841423E+00    4.8985203213747521E+00
Au    1.4909001940121181E+01    5.1213910954967794E+00    4.8663265196966874E+00
Au    1.4547668737989936E+00    7.7155900240735757E+00    4.8703410283260125E+00
Au    4.3480775237924636E+00    7.7136704287739679E+00    4.8584498104714049E+00
Au    7.2400516358760187E+00    7.8162281258184381E+00    4.7866278030211511E+00
Au    1.0571827622315430E+01    7.8162286531832343E+00    4.7866270433736728E+00
Au    1.3463802415645846E+01    7.7136704757529158E+00    4.8584499129519925E+00
Au    1.6357112813360189E+01    7.7155899401471739E+00    4.8703404081194916E+00
Au    2.0272724740021574E-07    1.0284467056043832E+01    4.8644217122433622E+00
Au    2.9394932825829847E+00    1.0296753836657222E+01    4.8625117197358483E+00
Au    5.8742490784093233E+00    1.0368578985576319E+01    4.8558541590747613E+00
Au    8.9059384554968002E+00    1.0413994926282474E+01    4.9148761784396688E+00
Au    1.1937630600535343E+01    1.0368580031684502E+01    4.8558542750919047E+00
Au    1.4872386040237023E+01    1.0296754148323009E+01    4.8625121000134923E+00
Au    1.4728096161762374E+00    1.2849651400023991E+01    4.8670727009113293E+00
Au    4.4183021665770301E+00    1.2873496996906676E+01    4.8707292647911089E+00
Au    7.3981954540791124E+00    1.2903275411929842E+01    4.8584842231425922E+00
Au    1.0413683008789279E+01    1.2903275253216107E+01    4.8584839359543928E+00
Au    1.3393577009895811E+01    1.2873497659360016E+01    4.8707293858219876E+00
Au    1.6339068984752604E+01    1.2849651526507479E+01    4.8670727523886921E+00
Au    7.4179659636353259E+00    5.9854082157403328E+00    6.9282949242016638E+00
Au    1.0393915831821278E+01    5.9854155354244334E+00    6.9282958973550484E+00
Au    8.9059448307439144E+00    8.5287975133795992E+00    6.9519236800252910E+00
Au    8.9059312390949135E+00    6.7533087720748037E+00    9.0989333659152969E+00
Au    8.9055896794418086E+00    6.3198115329982443E+00    1.1677534107545684E+01
Au    8.9065992031954995E+00    7.9950691921789776E+00    1.3691348109838628E+01
Au    8.9052972744432672E+00    7.3469761529296260E+00    1.6222929171205624E+01
Au    8.9064148491741708E+00    5.8423763248783143E+00    1.8355722668519270E+01
Au    8.9057677425342998E+00    7.2326734546662550E+00    2.0558268620545114E+01
Au    8.9059380644032871E+00    6.8794760231751937E+00    2.3157685563984145E+01
Au    8.9059396544026850E+00    5.1571173500236975E+00    2.5346274161028646E+01
Au    7.4360668457988348E+00    7.7094586127587057E+00    2.5333948378552979E+01
Au    1.0375814920903940E+01    7.7094585721623279E+00    2.5333953102366738E+01
Au   -1.9921097295056682E-07    1.7095730419064039E+00    2.7465265684071706E+01
Au    2.9418903826835217E+00    1.7074040816215554E+00    2.7461766191441562E+01
Au    5.8902533829714976E+00    1.6679324140283913E+00    2.7470784979146810E+01
Au    8.9059388792796934E+00    1.6646768508203589E+00    2.7457479262945220E+01
Au    1.1921624794491523E+01    1.6679320830063256E+00    2.7470785119146289E+01
Au    1.4869988582678232E+01    1.7074031779911452E+00    2.7461766345351272E+01
Au    1.4688857966916489E+00    4.2783399269424454E+00    2.7464850656337052E+01
Au    4.4020746172010092E+00    4.2616129595093124E+00    2.7477480933739265E+01
Au    7.3548288751734328E+00    4.1725860669475692E+00    2.7444815501127305E+01
Au    1.0457048670843431E+01    4.1725865814173035E+00    2.7444813741431147E+01
Au    1.3409804497050803E+01    4.2616113714168868E+00    2.7477480172589701E+01
Au    1.6342993026024967E+01    4.2783396874427657E+00    2.7464851719873142E+01
Au    3.5398289996431390E-07    6.8612617926890609E+00    2.7463199416485462E+01
Au    2.9110176576667972E+00    6.8556124311781153E+00    2.7466192936978356E+01
Au    5.8117715206963210E+00    6.8696942862906809E+00    2.7440104603174021E+01
Au    8.9059385382638308E+00    6.8676326857361722E+00    2.7654646350342240E+01
Au    1.2000108356034589E+01    6.8696916434431889E+00    2.7440106711317071E+01
Au    1.4900861674708286E+01    6.8556125174070912E+00    2.7466193262683699E+01
Au    1.4649871240490022E+00    9.4398843741578542E+00    2.7458952298149335E+01
Au    4.3955261316613408E+00    9.4611508184913422E+00    2.7445063745892689E+01
Au    7.3429825999766010E+00    9.5427721192431285E+00    2.7436544742707174E+01
Au    1.0468894544105698E+01    9.5427757023129054E+00    2.7436547471697526E+01
Au    1.3416351400879558E+01    9.4611506637650837E+00    2.7445064725275234E+01
Au    1.6346891247544626E+01    9.4398847565983530E+00    2.7458952901282668E+01
Au   -3.3217308176262082E-09    1.2005058676156059E+01    2.7460053469523299E+01
Au    2.9435241378632870E+00    1.2013223307821612E+01    2.7460552367675625E+01
Au    5.8982967817479022E+00    1.2056591598408508E+01    2.7470042174977333E+01
Au    8.9059381718650652E+00    1.2047644080357090E+01    2.7482940068505730E+01
Au    1.1913581879460811E+01    1.2056592394307307E+01    2.7470042137859075E+01
Au    1.4868354321040371E+01    1.2013223329910844E+01    2.7460552405223627E+01
Au    1.4724253136327337E+00    1.4568243388512577E+01    2.7463841758700909E+01
Au    4.4203131623014400E+00    1.4574192587728716E+01    2.7465092391743486E+01
Au    7.4090870821292691E+00    1.4574682815194569E+01    2.7472458540004904E+01
Au    1.0402791038261062E+01    1.4574682682692636E+01    2.7472458960999887E+01
Au    1.3391565388853898E+01    1.4574192634742666E+01    2.7465092460982557E+01
Au    1.6339452927193232E+01    1.4568243611729486E+01    2.7463841198257260E+01
Au   -1.2376146848751222E-07    4.7494343049098312E-03    2.9916235178957756E+01
Au    2.9630476450776748E+00    6.9934313131567224E-03    2.9918291079407535E+01
Au    5.9336117411145652E+00   -7.2699601706437116E-03    2.9924793992133313E+01
Au    8.9059392353104521E+00    2.1618919282561989E-03    2.9917396813359012E+01
Au    1.1878266512626132E+01   -7.2701285469585451E-03    2.9924794263123243E+01
Au    1.4848830662844332E+01    6.9931744819611988E-03    2.9918291315900834E+01
Au    1.4844022319097205E+00    2.5779569487422931E+00    2.9916891969706946E+01
Au    4.4503222134048759E+00    2.5711451196331638E+00    2.9920744925791325E+01
Au    7.4136485002886046E+00    2.5675693794822023E+00    2.9909743111106778E+01
Au    1.0398229885449812E+01    2.5675696618167350E+00    2.9909742052639839E+01
Au    1.3361556057750805E+01    2.5711448456815451E+00    2.9920744973710111E+01
Au    1.6327476229242837E+01    2.5779566002505088E+00    2.9916892374141348E+01
Au    1.3586498342287177E-07    5.1501150392067059E+00    2.9918138638138334E+01
Au    2.9671980331909000E+00    5.1475050232040971E+00    2.9920096267251147E+01
Au    5.9394338419699695E+00    5.1460747661978150E+00    2.9876912669556564E+01
Au    8.9059392044638610E+00    5.1192705849804714E+00    2.9919244729905955E+01
Au    1.1872444385212930E+01    5.1460737440999855E+00    2.9876912296045525E+01
Au    1.4844680099101724E+01    5.1475050863573104E+00    2.9920096469604388E+01
Au    1.4798159103633099E+00    7.7218372344791195E+00    2.9920757759397109E+01
Au    4.4445668575879029E+00    7.7129207036101617E+00    2.9909476064868141E+01
Au    7.4010483484830099E+00    7.7245959902609105E+00    2.9922334502090951E+01
Au    1.0410830176119523E+01    7.7245959594054341E+00    2.9922334469632620E+01
Au    1.3367311489450502E+01    7.7129207092197172E+00    2.9909475896944915E+01
Au    1.6332062786270690E+01    7.7218370709111293E+00    2.9920757871183831E+01
Au    1.4475231962784376E-07    1.0292049758230853E+01    2.9918055265928935E+01
Au    2.9722427099981839E+00    1.0283363610569134E+01    2.9912452478771062E+01
Au    5.9325423340596197E+00    1.0291671949190551E+01    2.9909437809276117E+01
Au    8.9059382673733243E+00    1.0274663136641314E+01    2.9874571806598368E+01
Au    1.1879336203060975E+01    1.0291672043353341E+01    2.9909438201083862E+01
Au    1.4839636044415409E+01    1.0283363878025426E+01    2.9912452902356804E+01
Au    1.4797717107487391E+00    1.2857483668281100E+01    2.9918552825068591E+01
Au    4.4404666503111230E+00    1.2858012758974878E+01    2.9922196177740133E+01
Au    7.4186566595600114E+00    1.2849473771390912E+01    2.9921921926737348E+01
Au    1.0393221410875485E+01    1.2849473408183821E+01    2.9921921824875838E+01
Au    1.3371411685556421E+01    1.2858012827373287E+01    2.9922196408307748E+01
Au    1.6332106738178503E+01    1.2857483600224853E+01    2.9918552804510362E+01
     &END COORD
     &KIND Au
       BASIS_SET TZVP-MOLOPT-SR-GTH-q11
       ELEMENT Au
       POTENTIAL GTH-PBE-q11
       &POTENTIAL
1 0 10
0.5900000000000000E+00 1  0.1051717881000000E+02
3
0.5438473300000000E+00 2  0.5786811030000000E+01 -0.2250679660000000E+01
0.2905614950000000E+01
0.6091729800000000E+00 2  0.4284048730000000E+01 -0.4071285200000000E+01
0.4817209620000000E+01
0.4373092200000000E+00 2 -0.7403281240000000E+01  0.3010193070000000E+01
-0.3413238110000000E+01
       &END POTENTIAL
     &END KIND
     &TOPOLOGY
       COORD_FILE_NAME junction_65.xyz
       COORD_FILE_FORMAT  XYZ
       NUMBER_OF_ATOMS  193
       MULTIPLE_UNIT_CELL  1 1 1
     &END TOPOLOGY
   &END SUBSYS
   &PRINT
     &TOTAL_NUMBERS  ON
     &END TOTAL_NUMBERS
   &END PRINT
 &END FORCE_EVAL
