 # Version information for this restart file 
 # current date 2022-05-03 00:31:01.408
 # current working dir /rds/general/user/jj1921/home/junction/ortho/cell_65
 # Program compiled at                              Thu 12 Jul 13:52:12 BST 2018
 # Program compiled on                                      build-2.hpc.ic.ac.uk
 # Program compiled for                                       Linux-x86-64-intel
 # Source code revision number                                         svn:18464
 &GLOBAL
   PRINT_LEVEL  MEDIUM
   PROJECT_NAME Au_junction
   RUN_TYPE  CELL_OPT
 &END GLOBAL
 &MOTION
   &CELL_OPT
     OPTIMIZER  BFGS
     STEP_START_VAL  94
     TYPE  DIRECT_CELL_OPT
     KEEP_ANGLES  T
     KEEP_SYMMETRY  T
     CONSTRAINT  XY
   &END CELL_OPT
   &CONSTRAINT
     &FIXED_ATOMS
       COMPONENTS_TO_FIX  XYZ
       LIST  1..36
     &END FIXED_ATOMS
   &END CONSTRAINT
   &PRINT
     &TRAJECTORY  SILENT
       &EACH
         CELL_OPT  1
       &END EACH
     &END TRAJECTORY
   &END PRINT
 &END MOTION
 &FORCE_EVAL
   METHOD  QS
   STRESS_TENSOR  ANALYTICAL
   &DFT
     BASIS_SET_FILE_NAME /rds/general/user/jj1921/home/BASIS_COM_MOLOPT_GTH
     POTENTIAL_FILE_NAME /rds/general/user/jj1921/home/GTH_POTENTIALS
     &SCF
       MAX_SCF  500
       EPS_SCF     9.9999999999999995E-08
       CHOLESKY  INVERSE
       SCF_GUESS  ATOMIC
       ADDED_MOS  20
       &DIAGONALIZATION  T
         ALGORITHM  STANDARD
       &END DIAGONALIZATION
       &SMEAR  T
         METHOD  FERMI_DIRAC
         ELECTRONIC_TEMPERATURE     3.0000000000000000E+02
       &END SMEAR
       &MIXING  T
         METHOD  BROYDEN_MIXING
         ALPHA     4.0000000000000002E-01
         BETA     5.0000000000000000E-01
         NBUFFER  8
       &END MIXING
     &END SCF
     &QS
       EPS_DEFAULT     1.0000000000000000E-14
       METHOD  GPW
     &END QS
     &MGRID
       NGRIDS  4
       CUTOFF     5.0000000000000000E+02
       REL_CUTOFF     4.0000000000000000E+01
     &END MGRID
     &XC
       DENSITY_CUTOFF     1.0000000000000000E-10
       GRADIENT_CUTOFF     1.0000000000000000E-10
       TAU_CUTOFF     1.0000000000000000E-10
       &XC_FUNCTIONAL  NO_SHORTCUT
         &PBE  T
         &END PBE
       &END XC_FUNCTIONAL
     &END XC
     &KPOINTS
       SCHEME MONKHORST-PACK 4 4 1
       FULL_GRID  T
     &END KPOINTS
   &END DFT
   &SUBSYS
     &CELL
       A     1.7811878396732904E+01    0.0000000000000000E+00    0.0000000000000000E+00
       B     0.0000000000000000E+00    1.5425539180689926E+01    0.0000000000000000E+00
       C     0.0000000000000000E+00    0.0000000000000000E+00    3.3008563609779046E+01
       PERIODIC  XYZ
       MULTIPLE_UNIT_CELL  1 1 1
       SYMMETRY  ORTHORHOMBIC
     &END CELL
     &COORD
Au    1.4843231999999993E+00    8.5697439999999980E-01    0.0000000000000000E+00
Au    4.4529695999999976E+00    8.5697439999999980E-01    0.0000000000000000E+00
Au    7.4216159999999967E+00    8.5697439999999980E-01    0.0000000000000000E+00
Au    1.0390262399999997E+01    8.5697439999999980E-01    0.0000000000000000E+00
Au    1.3358908799999995E+01    8.5697439999999980E-01    0.0000000000000000E+00
Au    1.6327555199999992E+01    8.5697439999999980E-01    0.0000000000000000E+00
Au    0.0000000000000000E+00    3.4278975999999992E+00    0.0000000000000000E+00
Au    2.9686463999999986E+00    3.4278975999999992E+00    0.0000000000000000E+00
Au    5.9372927999999972E+00    3.4278975999999992E+00    0.0000000000000000E+00
Au    8.9059391999999953E+00    3.4278975999999992E+00    0.0000000000000000E+00
Au    1.1874585599999994E+01    3.4278975999999992E+00    0.0000000000000000E+00
Au    1.4843231999999993E+01    3.4278975999999992E+00    0.0000000000000000E+00
Au    1.4843231999999993E+00    5.9988207899999981E+00    0.0000000000000000E+00
Au    4.4529695999999976E+00    5.9988207899999981E+00    0.0000000000000000E+00
Au    7.4216159999999967E+00    5.9988207899999981E+00    0.0000000000000000E+00
Au    1.0390262399999997E+01    5.9988207899999981E+00    0.0000000000000000E+00
Au    1.3358908799999995E+01    5.9988207899999981E+00    0.0000000000000000E+00
Au    1.6327555199999992E+01    5.9988207899999981E+00    0.0000000000000000E+00
Au    0.0000000000000000E+00    8.5697439899999992E+00    0.0000000000000000E+00
Au    2.9686463999999986E+00    8.5697439899999992E+00    0.0000000000000000E+00
Au    5.9372927999999972E+00    8.5697439899999992E+00    0.0000000000000000E+00
Au    8.9059391999999953E+00    8.5697439899999992E+00    0.0000000000000000E+00
Au    1.1874585599999994E+01    8.5697439899999992E+00    0.0000000000000000E+00
Au    1.4843231999999993E+01    8.5697439899999992E+00    0.0000000000000000E+00
Au    1.4843231999999993E+00    1.1140667189999997E+01    0.0000000000000000E+00
Au    4.4529695999999976E+00    1.1140667189999997E+01    0.0000000000000000E+00
Au    7.4216159999999967E+00    1.1140667189999997E+01    0.0000000000000000E+00
Au    1.0390262399999997E+01    1.1140667189999997E+01    0.0000000000000000E+00
Au    1.3358908799999995E+01    1.1140667189999997E+01    0.0000000000000000E+00
Au    1.6327555199999992E+01    1.1140667189999997E+01    0.0000000000000000E+00
Au    0.0000000000000000E+00    1.3711590380000002E+01    0.0000000000000000E+00
Au    2.9686463999999986E+00    1.3711590380000002E+01    0.0000000000000000E+00
Au    5.9372927999999972E+00    1.3711590380000002E+01    0.0000000000000000E+00
Au    8.9059391999999953E+00    1.3711590380000002E+01    0.0000000000000000E+00
Au    1.1874585599999994E+01    1.3711590380000002E+01    0.0000000000000000E+00
Au    1.4843231999999993E+01    1.3711590380000002E+01    0.0000000000000000E+00
Au    2.1366487962691479E-09    1.7080464358126886E+00    2.4053784933780809E+00
Au    2.9608729896490193E+00    1.7117791907181399E+00    2.4031140684525405E+00
Au    5.9225247741340823E+00    1.7105904442527637E+00    2.4038678613174831E+00
Au    8.9059391992487811E+00    1.7314455501113959E+00    2.4142175267350234E+00
Au    1.1889353625942645E+01    1.7105904437376540E+00    2.4038678604560162E+00
Au    1.4851005411102049E+01    1.7117791894358847E+00    2.4031140696928830E+00
Au    1.4818293294110667E+00    4.2771906954961434E+00    2.4023617671689164E+00
Au    4.4537252456658614E+00    4.2870195632865364E+00    2.4282003220748609E+00
Au    7.4057376438934739E+00    4.2855693583125065E+00    2.4155347169352153E+00
Au    1.0406140753650455E+01    4.2855693577366107E+00    2.4155347215190157E+00
Au    1.3358153160274419E+01    4.2870195604632073E+00    2.4282003124272169E+00
Au    1.6330049073331516E+01    4.2771906962682644E+00    2.4023617686212022E+00
Au    1.2769175816922969E-09    6.8490792771085278E+00    2.4014339283751998E+00
Au    2.9610461674682780E+00    6.8480685752896164E+00    2.4016990045898079E+00
Au    5.9291759684210037E+00    6.8452819104175848E+00    2.4179959042131625E+00
Au    8.9059392008010789E+00    6.8571650432488109E+00    2.4664198756785436E+00
Au    1.1882702430370415E+01    6.8452819139178702E+00    2.4179959075704294E+00
Au    1.4850832232976794E+01    6.8480685756900472E+00    2.4016990062812216E+00
Au    1.4877466267852064E+00    9.4238768047020880E+00    2.4060048952716739E+00
Au    4.4625710635333613E+00    9.4204113713016540E+00    2.4102134736376701E+00
Au    7.4271428627243994E+00    9.4377979489320918E+00    2.4209964853769996E+00
Au    1.0384735539610597E+01    9.4377979491069404E+00    2.4209964845605669E+00
Au    1.3349307338804675E+01    9.4204113728725218E+00    2.4102134761114904E+00
Au    1.6324131774244410E+01    9.4238768043895842E+00    2.4060048950267534E+00
Au    1.7812619405296649E-09    1.1991850733019163E+01    2.4083222620601799E+00
Au    2.9690412569632265E+00    1.1993281332172348E+01    2.4042961446068527E+00
Au    5.9384702251911667E+00    1.2006064161176365E+01    2.4035553372564489E+00
Au    8.9059392013662748E+00    1.1995121401714421E+01    2.4314589043073407E+00
Au    1.1873408177072996E+01    1.2006064161041827E+01    2.4035553377475720E+00
Au    1.4842837144746722E+01    1.1993281332398460E+01    2.4042961429913086E+00
Au    1.4805396349287376E+00    1.4563640775640001E+01    2.4079874610766301E+00
Au    4.4444500681306618E+00    1.4568485892260123E+01    2.4017743105011671E+00
Au    7.4224025583075184E+00    1.4577037244950585E+01    2.4020668104827227E+00
Au    1.0389475842223847E+01    1.4577037244950306E+01    2.4020668099898628E+00
Au    1.3367428332581111E+01    1.4568485893057911E+01    2.4017743094783781E+00
Au    1.6331338766145034E+01    1.4563640774979154E+01    2.4079874604568174E+00
Au    3.9265060905432766E-09   -1.1696380764517346E-02    4.8640562791268014E+00
Au    2.9400937600352308E+00   -1.2318708151144834E-02    4.8586176069996787E+00
Au    5.8991949818246603E+00   -2.2884809375253980E-02    4.8568745809698255E+00
Au    8.9059392010228162E+00   -9.5629981173246878E-03    4.8507169611294767E+00
Au    1.1912683419291842E+01   -2.2884808846315753E-02    4.8568745798578590E+00
Au    1.4871784643669423E+01   -1.2318709447545061E-02    4.8586176078725289E+00
Au    1.4638585673444511E+00    2.5534706540020302E+00    4.8638934973540930E+00
Au    4.3975871618108373E+00    2.5282631568925167E+00    4.8564298382014082E+00
Au    7.3622590994206165E+00    2.4808825086676998E+00    4.8522299597285929E+00
Au    1.0449619301351541E+01    2.4808825107993200E+00    4.8522299612672581E+00
Au    1.3414291241202493E+01    2.5282631534057582E+00    4.8564298400660340E+00
Au    1.6348019835199082E+01    2.5534706521428534E+00    4.8638934948276580E+00
Au    4.1220070981320891E-09    5.1298387507742662E+00    4.8572791178326264E+00
Au    2.9112016035249928E+00    5.1257171919354523E+00    4.8582043238753716E+00
Au    5.8207141094544701E+00    5.0716471090954744E+00    4.9150773795434377E+00
Au    8.9059391970454680E+00    4.9352968388517073E+00    4.7876058156663905E+00
Au    1.1991164299591880E+01    5.0716471009980433E+00    4.9150773491456787E+00
Au    1.4900676801319007E+01    5.1257171921740907E+00    4.8582043225576026E+00
Au    1.4534490839269909E+00    7.7150735674469768E+00    4.8575914739145043E+00
Au    4.3470787311179073E+00    7.7163070918105365E+00    4.8506582288686788E+00
Au    7.2434384951208344E+00    7.8099534325925637E+00    4.7986416867884740E+00
Au    1.0568439904793145E+01    7.8099534391377041E+00    4.7986416894123005E+00
Au    1.3464799671026944E+01    7.7163070958562798E+00    4.8506582322745402E+00
Au    1.6358429317792417E+01    7.7150735673405944E+00    4.8575914744806257E+00
Au    3.1737605210906937E-09    1.0284770158215068E+01    4.8514253656323492E+00
Au    2.9383521864604649E+00    1.0299382394671566E+01    4.8494558715026272E+00
Au    5.8777560515421374E+00    1.0366329164949962E+01    4.8525829022992975E+00
Au    8.9059391994135968E+00    1.0407935357250677E+01    4.9214432580269056E+00
Au    1.1934122355667386E+01    1.0366329169318879E+01    4.8525829056110972E+00
Au    1.4873526217822054E+01    1.0299382397809714E+01    4.8494558741960292E+00
Au    1.4733916744834488E+00    1.2853822986373235E+01    4.8567807865011927E+00
Au    4.4178447788635626E+00    1.2873725513519501E+01    4.8577233610943109E+00
Au    7.3996500141973254E+00    1.2901571647604255E+01    4.8531761839590395E+00
Au    1.0412228388479781E+01    1.2901571648681202E+01    4.8531761832343498E+00
Au    1.3394033625718036E+01    1.2873725517795709E+01    4.8577233604439165E+00
Au    1.6338486728208228E+01    1.2853822987240742E+01    4.8567807870923874E+00
Au    7.4360673328906461E+00    5.9961300002757563E+00    6.9576978294019520E+00
Au    1.0375811097005377E+01    5.9961300081485636E+00    6.9576978160947753E+00
Au    8.9059392157013360E+00    8.5293998346769069E+00    6.9695265201872081E+00
Au    8.9059392250626424E+00    6.7814335290595054E+00    9.1609675686667593E+00
Au    8.9059373380830973E+00    6.2352846433437845E+00    1.1737750859391651E+01
Au    8.9059438650644331E+00    7.6010501115976163E+00    1.3991308232444048E+01
Au    8.9059336489563066E+00    7.1399124703940275E+00    1.6581481149538156E+01
Au    8.9059427574054091E+00    5.9945290619241538E+00    1.8947137100346175E+01
Au    8.9059382096078021E+00    7.3433609519375258E+00    2.1189684015836040E+01
Au    8.9059391907352055E+00    6.8878875230992254E+00    2.3790626621956900E+01
Au    8.9059392004856122E+00    5.1722461274027385E+00    2.6015724087932867E+01
Au    7.4492452551377459E+00    7.7079145910860953E+00    2.6002494441042000E+01
Au    1.0362633162690118E+01    7.7079145885602562E+00    2.6002494467029912E+01
Au    1.7740712372762448E-09    1.7110311254556960E+00    2.8155230428272567E+01
Au    2.9440389276010657E+00    1.7085128799240719E+00    2.8151513725152352E+01
Au    5.8926920180435776E+00    1.6731565176003029E+00    2.8155608724692502E+01
Au    8.9059392022350981E+00    1.6661973572471902E+00    2.8140147828458762E+01
Au    1.1919186380540975E+01    1.6731565197959017E+00    2.8155608725315588E+01
Au    1.4867839474473586E+01    1.7085128760666539E+00    2.8151513724685028E+01
Au    1.4704295400974310E+00    4.2789204439984401E+00    2.8154775914007391E+01
Au    4.4067451563328861E+00    4.2641133708182606E+00    2.8167498229103561E+01
Au    7.3659152930560854E+00    4.1800425336127018E+00    2.8126499896731900E+01
Au    1.0445963096009139E+01    4.1800425398596364E+00    2.8126499890655037E+01
Au    1.3405133248248186E+01    4.2641133619629947E+00    2.8167498226488817E+01
Au    1.6341448860623217E+01    4.2789204463888080E+00    2.8154775917256838E+01
Au    3.5540984675382629E-09    6.8598880641509643E+00    2.8155522739901581E+01
Au    2.9171042483275800E+00    6.8551613660937125E+00    2.8156348495661302E+01
Au    5.8216508724356020E+00    6.8751865784241897E+00    2.8115019835716648E+01
Au    8.9059391948317916E+00    6.8659089969790887E+00    2.8331041612015046E+01
Au    1.1990227535805751E+01    6.8751865660088702E+00    2.8115019845576388E+01
Au    1.4894774156153606E+01    6.8551613646560723E+00    2.8156348496056118E+01
Au    1.4650607582220796E+00    9.4384646156310499E+00    2.8150772867438661E+01
Au    4.3974673964267135E+00    9.4599174767948497E+00    2.8136004839412596E+01
Au    7.3464389997636079E+00    9.5304081179248552E+00    2.8119651948210500E+01
Au    1.0465439405039110E+01    9.5304081358353105E+00    2.8119651961686081E+01
Au    1.3414411001349157E+01    9.4599174728494990E+00    2.8136004843301734E+01
Au    1.6346817642668658E+01    9.4384646181358836E+00    2.8150772867690382E+01
Au    1.6000502595371401E-09    1.2006407823432069E+01    2.8148593130914566E+01
Au    2.9456458271198156E+00    1.2012647034914174E+01    2.8150388981862655E+01
Au    5.9041551688204583E+00    1.2048823723223808E+01    2.8160012284980720E+01
Au    8.9059391945605721E+00    1.2048074331664196E+01    2.8173539228352091E+01
Au    1.1907723233453124E+01    1.2048823729873563E+01    2.8160012284076771E+01
Au    1.4866232573766345E+01    1.2012647033847355E+01    2.8150388980446131E+01
Au    1.4739981805607849E+00    1.4569234002881554E+01    2.8152980137352170E+01
Au    4.4239379364547435E+00    1.4571323426441376E+01    2.8153535975283184E+01
Au    7.4083950968384285E+00    1.4575634539340578E+01    2.8155366536443378E+01
Au    1.0403483303600185E+01    1.4575634537097681E+01    2.8155366536610607E+01
Au    1.3387940464557929E+01    1.4571323427858488E+01    2.8153535974109623E+01
Au    1.6337880220132178E+01    1.4569234006117366E+01    2.8152980135292967E+01
Au    1.2434243618019449E-09    1.9352705167279311E-03    3.0601392852271623E+01
Au    2.9641880014655997E+00    4.9362631533410679E-03    3.0601738221863094E+01
Au    5.9344607070481299E+00   -5.6218194136174260E-03    3.0605564533648298E+01
Au    8.9059392011648875E+00    8.4020547957100161E-03    3.0596871139164605E+01
Au    1.1877417694224381E+01   -5.6218213435975653E-03    3.0605564532764863E+01
Au    1.4847690397819582E+01    4.9362628399631609E-03    3.0601738222407100E+01
Au    1.4841810957376838E+00    2.5748570515651945E+00    3.0601319094480996E+01
Au    4.4537279653879356E+00    2.5725285779146896E+00    3.0605410151065627E+01
Au    7.4125398487940846E+00    2.5699957020300404E+00    3.0592630804064942E+01
Au    1.0399338551608569E+01    2.5699957042242181E+00    3.0592630800420704E+01
Au    1.3358150434370639E+01    2.5725285780429994E+00    3.0605410151114242E+01
Au    1.6327697304810030E+01    2.5748570508992983E+00    3.0601319093406232E+01
Au    1.9034889062546527E-09    5.1462498672356958E+00    3.0603247980900353E+01
Au    2.9685061912067532E+00    5.1446737260433446E+00    3.0606307920877192E+01
Au    5.9398490107823481E+00    5.1494225040803139E+00    3.0561574717167915E+01
Au    8.9059391988857843E+00    5.1203068787924408E+00    3.0608728313086083E+01
Au    1.1872029388981938E+01    5.1494224997651354E+00    3.0561574713379287E+01
Au    1.4843372208729374E+01    5.1446737258872117E+00    3.0606307925139586E+01
Au    1.4809358563044934E+00    7.7191557538764037E+00    3.0605264681319653E+01
Au    4.4467900215843876E+00    7.7107115174602869E+00    3.0592528516508857E+01
Au    7.4006219202537578E+00    7.7268840359199045E+00    3.0609839063768781E+01
Au    1.0411256479952012E+01    7.7268840350708476E+00    3.0609839062225578E+01
Au    1.3365088377215880E+01    7.7107115161252047E+00    3.0592528515256866E+01
Au    1.6330942545402774E+01    7.7191557539404023E+00    3.0605264679218173E+01
Au    2.9875091342075243E-09    1.0290824332847855E+01    3.0602415925803776E+01
Au    2.9724387629337121E+00    1.0279658330189273E+01    3.0598084120363403E+01
Au    5.9340931014359253E+00    1.0292197789812914E+01    3.0594980046881187E+01
Au    8.9059391968461536E+00    1.0277960217440434E+01    3.0561504022400634E+01
Au    1.1877785300218186E+01    1.0292197791658442E+01    3.0594980049105555E+01
Au    1.4839439639080826E+01    1.0279658331292843E+01    3.0598084122211347E+01
Au    1.4804972952894520E+00    1.2856753996431916E+01    3.0602400128475583E+01
Au    4.4411475485818839E+00    1.2855327847968645E+01    3.0604255351165673E+01
Au    7.4193408046734808E+00    1.2852484915613953E+01    3.0607789080520845E+01
Au    1.0392537593712321E+01    1.2852484913959165E+01    3.0607789079892743E+01
Au    1.3370730851343129E+01    1.2855327847322719E+01    3.0604255351816445E+01
Au    1.6331381103473106E+01    1.2856753996712353E+01    3.0602400126491002E+01
     &END COORD
     &KIND Au
       BASIS_SET TZVP-MOLOPT-SR-GTH-q11
       ELEMENT Au
       POTENTIAL GTH-PBE-q11
       &POTENTIAL
1 0 10
0.5900000000000000E+00 1  0.1051717881000000E+02
3
0.5438473300000000E+00 2  0.5786811030000000E+01 -0.2250679660000000E+01
0.2905614950000000E+01
0.6091729800000000E+00 2  0.4284048730000000E+01 -0.4071285200000000E+01
0.4817209620000000E+01
0.4373092200000000E+00 2 -0.7403281240000000E+01  0.3010193070000000E+01
-0.3413238110000000E+01
       &END POTENTIAL
     &END KIND
     &TOPOLOGY
       COORD_FILE_NAME junction_65.xyz
       COORD_FILE_FORMAT  XYZ
       NUMBER_OF_ATOMS  193
       MULTIPLE_UNIT_CELL  1 1 1
     &END TOPOLOGY
   &END SUBSYS
   &PRINT
     &TOTAL_NUMBERS  ON
     &END TOTAL_NUMBERS
   &END PRINT
 &END FORCE_EVAL
