 # Version information for this restart file 
 # current date 2022-05-01 19:12:42.920
 # current working dir /rds/general/user/jj1921/home/junction/ortho/cell_65
 # Program compiled at                              Thu 12 Jul 13:52:12 BST 2018
 # Program compiled on                                      build-2.hpc.ic.ac.uk
 # Program compiled for                                       Linux-x86-64-intel
 # Source code revision number                                         svn:18464
 &GLOBAL
   PRINT_LEVEL  MEDIUM
   PROJECT_NAME Au_junction
   RUN_TYPE  CELL_OPT
 &END GLOBAL
 &MOTION
   &CELL_OPT
     OPTIMIZER  BFGS
     STEP_START_VAL  77
     TYPE  DIRECT_CELL_OPT
     KEEP_ANGLES  T
     KEEP_SYMMETRY  T
     CONSTRAINT  XY
   &END CELL_OPT
   &CONSTRAINT
     &FIXED_ATOMS
       COMPONENTS_TO_FIX  XYZ
       LIST  1..36
     &END FIXED_ATOMS
   &END CONSTRAINT
   &PRINT
     &TRAJECTORY  SILENT
       &EACH
         CELL_OPT  1
       &END EACH
     &END TRAJECTORY
   &END PRINT
 &END MOTION
 &FORCE_EVAL
   METHOD  QS
   STRESS_TENSOR  ANALYTICAL
   &DFT
     BASIS_SET_FILE_NAME /rds/general/user/jj1921/home/BASIS_COM_MOLOPT_GTH
     POTENTIAL_FILE_NAME /rds/general/user/jj1921/home/GTH_POTENTIALS
     &SCF
       MAX_SCF  500
       EPS_SCF     9.9999999999999995E-08
       CHOLESKY  INVERSE
       SCF_GUESS  ATOMIC
       ADDED_MOS  20
       &DIAGONALIZATION  T
         ALGORITHM  STANDARD
       &END DIAGONALIZATION
       &SMEAR  T
         METHOD  FERMI_DIRAC
         ELECTRONIC_TEMPERATURE     3.0000000000000000E+02
       &END SMEAR
       &MIXING  T
         METHOD  BROYDEN_MIXING
         ALPHA     4.0000000000000002E-01
         BETA     5.0000000000000000E-01
         NBUFFER  8
       &END MIXING
     &END SCF
     &QS
       EPS_DEFAULT     1.0000000000000000E-14
       METHOD  GPW
     &END QS
     &MGRID
       NGRIDS  4
       CUTOFF     5.0000000000000000E+02
       REL_CUTOFF     4.0000000000000000E+01
     &END MGRID
     &XC
       DENSITY_CUTOFF     1.0000000000000000E-10
       GRADIENT_CUTOFF     1.0000000000000000E-10
       TAU_CUTOFF     1.0000000000000000E-10
       &XC_FUNCTIONAL  NO_SHORTCUT
         &PBE  T
         &END PBE
       &END XC_FUNCTIONAL
     &END XC
     &KPOINTS
       SCHEME MONKHORST-PACK 4 4 1
       FULL_GRID  T
     &END KPOINTS
   &END DFT
   &SUBSYS
     &CELL
       A     1.7811878396732901E+01    0.0000000000000000E+00    0.0000000000000000E+00
       B     0.0000000000000000E+00    1.5425539180689929E+01    0.0000000000000000E+00
       C     0.0000000000000000E+00    0.0000000000000000E+00    3.3291748364625150E+01
       PERIODIC  XYZ
       MULTIPLE_UNIT_CELL  1 1 1
       SYMMETRY  ORTHORHOMBIC
     &END CELL
     &COORD
Au    1.4843231999999995E+00    8.5697439999999980E-01    0.0000000000000000E+00
Au    4.4529695999999985E+00    8.5697439999999980E-01    0.0000000000000000E+00
Au    7.4216159999999975E+00    8.5697439999999980E-01    0.0000000000000000E+00
Au    1.0390262399999999E+01    8.5697439999999980E-01    0.0000000000000000E+00
Au    1.3358908799999998E+01    8.5697439999999980E-01    0.0000000000000000E+00
Au    1.6327555199999995E+01    8.5697439999999980E-01    0.0000000000000000E+00
Au    0.0000000000000000E+00    3.4278975999999992E+00    0.0000000000000000E+00
Au    2.9686463999999990E+00    3.4278975999999992E+00    0.0000000000000000E+00
Au    5.9372927999999980E+00    3.4278975999999992E+00    0.0000000000000000E+00
Au    8.9059391999999971E+00    3.4278975999999992E+00    0.0000000000000000E+00
Au    1.1874585599999996E+01    3.4278975999999992E+00    0.0000000000000000E+00
Au    1.4843231999999995E+01    3.4278975999999992E+00    0.0000000000000000E+00
Au    1.4843231999999995E+00    5.9988207899999981E+00    0.0000000000000000E+00
Au    4.4529695999999985E+00    5.9988207899999981E+00    0.0000000000000000E+00
Au    7.4216159999999975E+00    5.9988207899999981E+00    0.0000000000000000E+00
Au    1.0390262399999999E+01    5.9988207899999981E+00    0.0000000000000000E+00
Au    1.3358908799999998E+01    5.9988207899999981E+00    0.0000000000000000E+00
Au    1.6327555199999995E+01    5.9988207899999981E+00    0.0000000000000000E+00
Au    0.0000000000000000E+00    8.5697439899999974E+00    0.0000000000000000E+00
Au    2.9686463999999990E+00    8.5697439899999974E+00    0.0000000000000000E+00
Au    5.9372927999999980E+00    8.5697439899999974E+00    0.0000000000000000E+00
Au    8.9059391999999971E+00    8.5697439899999974E+00    0.0000000000000000E+00
Au    1.1874585599999996E+01    8.5697439899999974E+00    0.0000000000000000E+00
Au    1.4843231999999995E+01    8.5697439899999974E+00    0.0000000000000000E+00
Au    1.4843231999999995E+00    1.1140667189999997E+01    0.0000000000000000E+00
Au    4.4529695999999985E+00    1.1140667189999997E+01    0.0000000000000000E+00
Au    7.4216159999999975E+00    1.1140667189999997E+01    0.0000000000000000E+00
Au    1.0390262399999999E+01    1.1140667189999997E+01    0.0000000000000000E+00
Au    1.3358908799999998E+01    1.1140667189999997E+01    0.0000000000000000E+00
Au    1.6327555199999995E+01    1.1140667189999997E+01    0.0000000000000000E+00
Au    0.0000000000000000E+00    1.3711590380000001E+01    0.0000000000000000E+00
Au    2.9686463999999990E+00    1.3711590380000001E+01    0.0000000000000000E+00
Au    5.9372927999999980E+00    1.3711590380000001E+01    0.0000000000000000E+00
Au    8.9059391999999971E+00    1.3711590380000001E+01    0.0000000000000000E+00
Au    1.1874585599999996E+01    1.3711590380000001E+01    0.0000000000000000E+00
Au    1.4843231999999995E+01    1.3711590380000001E+01    0.0000000000000000E+00
Au    3.7794242882910772E-09    1.7211416595653348E+00    2.3967742975237178E+00
Au    2.9779110167502929E+00    1.7217001045318350E+00    2.3967669220181391E+00
Au    5.9414944300533969E+00    1.7200310039371838E+00    2.4027229489117738E+00
Au    8.9059391999787998E+00    1.7246576897833721E+00    2.4129610610232346E+00
Au    1.1870383971305580E+01    1.7200310040753730E+00    2.4027229482552865E+00
Au    1.4833967385976564E+01    1.7217001055024288E+00    2.3967669231009494E+00
Au    1.4957065491045660E+00    4.2863447560457075E+00    2.3933796319689598E+00
Au    4.4863380457380213E+00    4.2954282139132678E+00    2.4362220082486741E+00
Au    7.4274471572082179E+00    4.2983382360088926E+00    2.4476503331621369E+00
Au    1.0384431240618186E+01    4.2983382365435272E+00    2.4476503340536842E+00
Au    1.3325540353706211E+01    4.2954282138062050E+00    2.4362220011933249E+00
Au    1.6316171853717229E+01    4.2863447563445467E+00    2.3933796341122395E+00
Au    2.2364156691611904E-09    6.8591647346595837E+00    2.3968594084728081E+00
Au    2.9806540613274350E+00    6.8463592796099029E+00    2.3992065740252349E+00
Au    5.9538727396941091E+00    6.8445773912802466E+00    2.4414901683360015E+00
Au    8.9059391999711028E+00    6.8525062848741793E+00    2.5068867551796545E+00
Au    1.1858005659873399E+01    6.8445773924003364E+00    2.4414901691975901E+00
Au    1.4831224340439832E+01    6.8463592796461183E+00    2.3992065710364270E+00
Au    1.4933738190940149E+00    9.4260107634911794E+00    2.3991010234456573E+00
Au    4.4712170714327000E+00    9.4135317957967004E+00    2.4115985138651981E+00
Au    7.4346430722678694E+00    9.4166876562381567E+00    2.4419047804854981E+00
Au    1.0377235329317431E+01    9.4166876559434112E+00    2.4419047793565927E+00
Au    1.3340661330266924E+01    9.4135317976210757E+00    2.4115985142770278E+00
Au    1.6318504583223184E+01    9.4260107645243583E+00    2.3991010219820144E+00
Au    2.3362307899245143E-09    1.2001133215695189E+01    2.3973597309018491E+00
Au    2.9817909879127757E+00    1.1992225478604173E+01    2.4014420195685320E+00
Au    5.9486724942080285E+00    1.1994949606895752E+01    2.4025052151798851E+00
Au    8.9059392015209990E+00    1.1966704759929540E+01    2.4366353950575244E+00
Au    1.1863205908538095E+01    1.1994949608299393E+01    2.4025052152916233E+00
Au    1.4830087413827723E+01    1.1992225479261808E+01    2.4014420204081599E+00
Au    1.4897498932566144E+00    1.4572474390087384E+01    2.3969817384975336E+00
Au    4.4584635978943261E+00    1.4568607936173057E+01    2.4022933948947993E+00
Au    7.4280255656421268E+00    1.4566949757251415E+01    2.4017338535109567E+00
Au    1.0383852837726678E+01    1.4566949757633269E+01    2.4017338549201632E+00
Au    1.3353414804866299E+01    1.4568607937241811E+01    2.4022933955541586E+00
Au    1.6322128507453552E+01    1.4572474390999565E+01    2.3969817410027821E+00
Au    3.7670958860272294E-09   -2.0910346341560053E-03    4.8280641098368369E+00
Au    2.9545652498768296E+00   -1.3571355428120943E-03    4.8399798222966437E+00
Au    5.9217058446518900E+00   -1.7739202553938564E-02    4.8585087666670290E+00
Au    8.9059392026464135E+00   -9.6705841439660226E-03    4.8559233273421958E+00
Au    1.1890172559462412E+01   -1.7739200540199295E-02    4.8585087690559003E+00
Au    1.4857313151743925E+01   -1.3571340165608910E-03    4.8399798244422207E+00
Au    1.4706713138400322E+00    2.5626239734268186E+00    4.8402968157177391E+00
Au    4.4225821943152157E+00    2.5367447178235385E+00    4.8627643301250840E+00
Au    7.3803952748783006E+00    2.4904937173169346E+00    4.8631632658555928E+00
Au    1.0431483127255690E+01    2.4904937184292395E+00    4.8631632640422220E+00
Au    1.3389296207353476E+01    2.5367447204958755E+00    4.8627643291223999E+00
Au    1.6341207088797109E+01    2.5626239738028445E+00    4.8402968129572601E+00
Au    4.1812732640736855E-09    5.1348680025460238E+00    4.8355687539893228E+00
Au    2.9249814854082059E+00    5.1244311069499089E+00    4.8584199804131369E+00
Au    5.8401126433195163E+00    5.0826671242688404E+00    4.9670604197029746E+00
Au    8.9059391995679515E+00    4.9527830442303440E+00    4.8629351728982035E+00
Au    1.1971765756468765E+01    5.0826671229157840E+00    4.9670604130018265E+00
Au    1.4886896911456473E+01    5.1244311085624386E+00    4.8584199752320609E+00
Au    1.4616847437371487E+00    7.7106019648418096E+00    4.8462607214272122E+00
Au    4.3605103006455304E+00    7.7078551687377237E+00    4.8612617227494521E+00
Au    7.2529678708809957E+00    7.8133542530934168E+00    4.8506565289389414E+00
Au    1.0558910528603127E+01    7.8133542497500503E+00    4.8506565290457617E+00
Au    1.3451368101541608E+01    7.7078551704966101E+00    4.8612617179928241E+00
Au    1.6350193657472488E+01    7.7106019649069530E+00    4.8462607172662562E+00
Au    1.8805008784139379E-09    1.0284972712939201E+01    4.8287058849628721E+00
Au    2.9444599813259482E+00    1.0290232165141759E+01    4.8401050337220246E+00
Au    5.8778807180567334E+00    1.0361871203897321E+01    4.8589920367757813E+00
Au    8.9059392027333057E+00    1.0381976977507119E+01    4.9663923435332933E+00
Au    1.1933997685784510E+01    1.0361871203797259E+01    4.8589920386399870E+00
Au    1.4867418422062137E+01    1.0290232166717436E+01    4.8401050349462045E+00
Au    1.4801338853571768E+00    1.2857554650872858E+01    4.8278654129301479E+00
Au    4.4301676719144218E+00    1.2875671556117776E+01    4.8562053390953697E+00
Au    7.4104776517003828E+00    1.2886203125624490E+01    4.8623876148888101E+00
Au    1.0401400753803346E+01    1.2886203125708137E+01    4.8623876162848809E+00
Au    1.3381710733359691E+01    1.2875671558104035E+01    4.8562053432667449E+00
Au    1.6331744517020027E+01    1.2857554650233416E+01    4.8278654154032070E+00
Au    7.4148269663222788E+00    6.0166062727023952E+00    7.0356292597168304E+00
Au    1.0397051433822538E+01    6.0166062735095034E+00    7.0356292608327626E+00
Au    8.9059392049664314E+00    8.5402686970212383E+00    7.0557842681532632E+00
Au    8.9059391940230945E+00    6.7526052400054457E+00    9.2440850826904324E+00
Au    8.9059387385115212E+00    6.2343965201254736E+00    1.1811626915859550E+01
Au    8.9059404613798403E+00    7.5585972567400868E+00    1.4098276367327040E+01
Au    8.9059375957372708E+00    7.0775274315971846E+00    1.6704318554888122E+01
Au    8.9059402058299995E+00    6.0607915268905126E+00    1.9149347316465349E+01
Au    8.9059389514861156E+00    7.3347210158892580E+00    2.1432677179730746E+01
Au    8.9059391991314509E+00    6.9377392329607686E+00    2.4049212696033408E+01
Au    8.9059392036941016E+00    5.1736848425352662E+00    2.6233377482312637E+01
Au    7.4277305055193352E+00    7.6907558899611441E+00    2.6249981790820645E+01
Au    1.0384147905090204E+01    7.6907558925718504E+00    2.6249981790751608E+01
Au    1.0313740707512761E-09    1.7155323590956482E+00    2.8463701831765270E+01
Au    2.9502650788624489E+00    1.7135991835023883E+00    2.8448028564957291E+01
Au    5.9022870781193362E+00    1.6820390833261540E+00    2.8435854553327491E+01
Au    8.9059392016074881E+00    1.6689093448965437E+00    2.8413492418957500E+01
Au    1.1909591324468508E+01    1.6820390873495477E+00    2.8435854557444365E+01
Au    1.4861613323188100E+01    1.7135991815834981E+00    2.8448028565105506E+01
Au    1.4734686289300989E+00    4.2853463225649193E+00    2.8452474113611704E+01
Au    4.4169378719418706E+00    4.2718034152739577E+00    2.8445159203318056E+01
Au    7.3738444936948975E+00    4.1834854458767357E+00    2.8355363578165083E+01
Au    1.0438033903977436E+01    4.1834854461277509E+00    2.8355363577595298E+01
Au    1.3394940525821470E+01    4.2718034123374231E+00    2.8445159203857365E+01
Au    1.6338409772649531E+01    4.2853463258931601E+00    2.8452474115317177E+01
Au    1.3511144711281649E-09    6.8620734638189207E+00    2.8448369868650985E+01
Au    2.9163288961692513E+00    6.8598897736311155E+00    2.8438750238396665E+01
Au    5.8134014193270565E+00    6.8725532325233782E+00    2.8370292460102508E+01
Au    8.9059392021338901E+00    6.8636674355939054E+00    2.8559892366939209E+01
Au    1.1998476978763755E+01    6.8725532292816842E+00    2.8370292461912715E+01
Au    1.4895549504681046E+01    6.8598897800204446E+00    2.8438750236750060E+01
Au    1.4691745775702947E+00    9.4374307295345421E+00    2.8446994665396481E+01
Au    4.3988339823299816E+00    9.4575604217980782E+00    2.8410412712356525E+01
Au    7.3408744198919997E+00    9.5179064847306094E+00    2.8362420229674953E+01
Au    1.0471003982229059E+01    9.5179064893054157E+00    2.8362420232198744E+01
Au    1.3413044419901068E+01    9.4575604180209556E+00    2.8410412713956799E+01
Au    1.6342703820571824E+01    9.4374307317779333E+00    2.8446994666450237E+01
Au    2.2125941195501373E-09    1.2002940384345875E+01    2.8459321078815044E+01
Au    2.9573585631508936E+00    1.2012372243004226E+01    2.8446790963167320E+01
Au    5.9171802820903689E+00    1.2040423370900738E+01    2.8432981282228681E+01
Au    8.9059391970950887E+00    1.2025620860603375E+01    2.8437773529880946E+01
Au    1.1894698116594949E+01    1.2040423373406975E+01    2.8432981285833460E+01
Au    1.4854519835555578E+01    1.2012372241973878E+01    2.8446790969071273E+01
Au    1.4803636738917405E+00    1.4568633224713318E+01    2.8462501209274844E+01
Au    4.4417310412522397E+00    1.4574409581022499E+01    2.8443096659856334E+01
Au    7.4183392087525624E+00    1.4571677658651989E+01    2.8435169796141686E+01
Au    1.0393539188122604E+01    1.4571677658594741E+01    2.8435169799400779E+01
Au    1.3370147359079720E+01    1.4574409583919767E+01    2.8443096666085459E+01
Au    1.6331514725386196E+01    1.4568633227101365E+01    2.8462501211934992E+01
Au    1.7232212439146797E-09    1.5628392227557077E-03    3.0893615068947138E+01
Au    2.9780365437216552E+00    2.0379698241151747E-03    3.0890833921321136E+01
Au    5.9465821545171140E+00   -2.9533298621502017E-04    3.0888136010247798E+01
Au    8.9059391988128702E+00    1.2738477675686118E-02    3.0882955528496147E+01
Au    1.1865296244500792E+01   -2.9533428361896763E-04    3.0888136010153850E+01
Au    1.4833841856117701E+01    2.0379720172745736E-03    3.0890833923871295E+01
Au    1.4883738260463810E+00    2.5763359584508736E+00    3.0892881795613846E+01
Au    4.4619430251433130E+00    2.5776015448393848E+00    3.0890596744981263E+01
Au    7.4244250829082290E+00    2.5876284503164544E+00    3.0868107291151500E+01
Au    1.0387453317144081E+01    2.5876284502006874E+00    3.0868107291717244E+01
Au    1.3349935376849118E+01    2.5776015449949021E+00    3.0890596747066049E+01
Au    1.6323504577926162E+01    2.5763359590303700E+00    3.0892881794778113E+01
Au    3.3979352456268430E-09    5.1498107446103161E+00    3.0889924605835915E+01
Au    2.9810483493680291E+00    5.1485933363880259E+00    3.0892089972905904E+01
Au    5.9565880760477858E+00    5.1505158705080918E+00    3.0828867771994322E+01
Au    8.9059391997012280E+00    5.1263684130299181E+00    3.0860646598317519E+01
Au    1.1855290324884022E+01    5.1505158706990901E+00    3.0828867774100694E+01
Au    1.4830830052008336E+01    5.1485933380290971E+00    3.0892089972983289E+01
Au    1.4876172122364684E+00    7.7175862085945512E+00    3.0895436363384999E+01
Au    4.4715961466743055E+00    7.7089888299736842E+00    3.0875623575610547E+01
Au    7.4136071864100126E+00    7.7165317172134262E+00    3.0866495875054607E+01
Au    1.0398271214037432E+01    7.7165317176002430E+00    3.0866495875477398E+01
Au    1.3340282252868617E+01    7.7089888318704451E+00    3.0875623573993206E+01
Au    1.6324261188083895E+01    7.7175862101480481E+00    3.0895436365105201E+01
Au    3.6814628755439274E-09    1.0287035220258009E+01    3.0894310994741204E+01
Au    2.9883731849465978E+00    1.0275936069424102E+01    3.0884436916985628E+01
Au    5.9552705797878502E+00    1.0277506792190538E+01    3.0870925034401186E+01
Au    8.9059391982809011E+00    1.0261896862131707E+01    3.0824767209879649E+01
Au    1.1856607818798160E+01    1.0277506794584578E+01    3.0870925033681370E+01
Au    1.4823505216128146E+01    1.0275936071248097E+01    3.0884436920019855E+01
Au    1.4894399907246079E+00    1.2850190089247821E+01    3.0895144181576828E+01
Au    4.4609061289141190E+00    1.2855451036073173E+01    3.0889278085928634E+01
Au    7.4296677307130121E+00    1.2847544555464564E+01    3.0886476089847019E+01
Au    1.0382210663990907E+01    1.2847544557169289E+01    3.0886476091370753E+01
Au    1.3350972268875612E+01    1.2855451036916223E+01    3.0889278085583324E+01
Au    1.6322438407764821E+01    1.2850190087832498E+01    3.0895144180211823E+01
     &END COORD
     &KIND Au
       BASIS_SET TZVP-MOLOPT-SR-GTH-q11
       ELEMENT Au
       POTENTIAL GTH-PBE-q11
       &POTENTIAL
1 0 10
0.5900000000000000E+00 1  0.1051717881000000E+02
3
0.5438473300000000E+00 2  0.5786811030000000E+01 -0.2250679660000000E+01
0.2905614950000000E+01
0.6091729800000000E+00 2  0.4284048730000000E+01 -0.4071285200000000E+01
0.4817209620000000E+01
0.4373092200000000E+00 2 -0.7403281240000000E+01  0.3010193070000000E+01
-0.3413238110000000E+01
       &END POTENTIAL
     &END KIND
     &TOPOLOGY
       COORD_FILE_NAME junction_65.xyz
       COORD_FILE_FORMAT  XYZ
       NUMBER_OF_ATOMS  193
       MULTIPLE_UNIT_CELL  1 1 1
     &END TOPOLOGY
   &END SUBSYS
   &PRINT
     &TOTAL_NUMBERS  ON
     &END TOTAL_NUMBERS
   &END PRINT
 &END FORCE_EVAL
