 # Version information for this restart file 
 # current date 2022-05-03 12:10:30.235
 # current working dir /rds/general/user/jj1921/home/junction/ortho/cell_65
 # Program compiled at                              Thu 12 Jul 13:52:12 BST 2018
 # Program compiled on                                      build-2.hpc.ic.ac.uk
 # Program compiled for                                       Linux-x86-64-intel
 # Source code revision number                                         svn:18464
 &GLOBAL
   PRINT_LEVEL  MEDIUM
   PROJECT_NAME Au_junction
   RUN_TYPE  CELL_OPT
 &END GLOBAL
 &MOTION
   &CELL_OPT
     OPTIMIZER  BFGS
     STEP_START_VAL  107
     TYPE  DIRECT_CELL_OPT
     KEEP_ANGLES  T
     KEEP_SYMMETRY  T
     CONSTRAINT  XY
   &END CELL_OPT
   &CONSTRAINT
     &FIXED_ATOMS
       COMPONENTS_TO_FIX  XYZ
       LIST  1..36
     &END FIXED_ATOMS
   &END CONSTRAINT
   &PRINT
     &TRAJECTORY  SILENT
       &EACH
         CELL_OPT  1
       &END EACH
     &END TRAJECTORY
   &END PRINT
 &END MOTION
 &FORCE_EVAL
   METHOD  QS
   STRESS_TENSOR  ANALYTICAL
   &DFT
     BASIS_SET_FILE_NAME /rds/general/user/jj1921/home/BASIS_COM_MOLOPT_GTH
     POTENTIAL_FILE_NAME /rds/general/user/jj1921/home/GTH_POTENTIALS
     &SCF
       MAX_SCF  500
       EPS_SCF     9.9999999999999995E-08
       CHOLESKY  INVERSE
       SCF_GUESS  ATOMIC
       ADDED_MOS  20
       &DIAGONALIZATION  T
         ALGORITHM  STANDARD
       &END DIAGONALIZATION
       &SMEAR  T
         METHOD  FERMI_DIRAC
         ELECTRONIC_TEMPERATURE     3.0000000000000000E+02
       &END SMEAR
       &MIXING  T
         METHOD  BROYDEN_MIXING
         ALPHA     4.0000000000000002E-01
         BETA     5.0000000000000000E-01
         NBUFFER  8
       &END MIXING
     &END SCF
     &QS
       EPS_DEFAULT     1.0000000000000000E-14
       METHOD  GPW
     &END QS
     &MGRID
       NGRIDS  4
       CUTOFF     5.0000000000000000E+02
       REL_CUTOFF     4.0000000000000000E+01
     &END MGRID
     &XC
       DENSITY_CUTOFF     1.0000000000000000E-10
       GRADIENT_CUTOFF     1.0000000000000000E-10
       TAU_CUTOFF     1.0000000000000000E-10
       &XC_FUNCTIONAL  NO_SHORTCUT
         &PBE  T
         &END PBE
       &END XC_FUNCTIONAL
     &END XC
     &KPOINTS
       SCHEME MONKHORST-PACK 4 4 1
       FULL_GRID  T
     &END KPOINTS
   &END DFT
   &SUBSYS
     &CELL
       A     1.7811878396732904E+01    0.0000000000000000E+00    0.0000000000000000E+00
       B     0.0000000000000000E+00    1.5425539180689926E+01    0.0000000000000000E+00
       C     0.0000000000000000E+00    0.0000000000000000E+00    3.2933239234039227E+01
       PERIODIC  XYZ
       MULTIPLE_UNIT_CELL  1 1 1
       SYMMETRY  ORTHORHOMBIC
     &END CELL
     &COORD
Au    1.4843231999999993E+00    8.5697439999999980E-01    0.0000000000000000E+00
Au    4.4529695999999976E+00    8.5697439999999980E-01    0.0000000000000000E+00
Au    7.4216159999999967E+00    8.5697439999999980E-01    0.0000000000000000E+00
Au    1.0390262399999997E+01    8.5697439999999980E-01    0.0000000000000000E+00
Au    1.3358908799999995E+01    8.5697439999999980E-01    0.0000000000000000E+00
Au    1.6327555199999992E+01    8.5697439999999980E-01    0.0000000000000000E+00
Au    0.0000000000000000E+00    3.4278975999999992E+00    0.0000000000000000E+00
Au    2.9686463999999986E+00    3.4278975999999992E+00    0.0000000000000000E+00
Au    5.9372927999999972E+00    3.4278975999999992E+00    0.0000000000000000E+00
Au    8.9059391999999953E+00    3.4278975999999992E+00    0.0000000000000000E+00
Au    1.1874585599999994E+01    3.4278975999999992E+00    0.0000000000000000E+00
Au    1.4843231999999993E+01    3.4278975999999992E+00    0.0000000000000000E+00
Au    1.4843231999999993E+00    5.9988207899999981E+00    0.0000000000000000E+00
Au    4.4529695999999976E+00    5.9988207899999981E+00    0.0000000000000000E+00
Au    7.4216159999999967E+00    5.9988207899999981E+00    0.0000000000000000E+00
Au    1.0390262399999997E+01    5.9988207899999981E+00    0.0000000000000000E+00
Au    1.3358908799999995E+01    5.9988207899999981E+00    0.0000000000000000E+00
Au    1.6327555199999992E+01    5.9988207899999981E+00    0.0000000000000000E+00
Au    0.0000000000000000E+00    8.5697439899999992E+00    0.0000000000000000E+00
Au    2.9686463999999986E+00    8.5697439899999992E+00    0.0000000000000000E+00
Au    5.9372927999999972E+00    8.5697439899999992E+00    0.0000000000000000E+00
Au    8.9059391999999953E+00    8.5697439899999992E+00    0.0000000000000000E+00
Au    1.1874585599999994E+01    8.5697439899999992E+00    0.0000000000000000E+00
Au    1.4843231999999993E+01    8.5697439899999992E+00    0.0000000000000000E+00
Au    1.4843231999999993E+00    1.1140667189999997E+01    0.0000000000000000E+00
Au    4.4529695999999976E+00    1.1140667189999997E+01    0.0000000000000000E+00
Au    7.4216159999999967E+00    1.1140667189999997E+01    0.0000000000000000E+00
Au    1.0390262399999997E+01    1.1140667189999997E+01    0.0000000000000000E+00
Au    1.3358908799999995E+01    1.1140667189999997E+01    0.0000000000000000E+00
Au    1.6327555199999992E+01    1.1140667189999997E+01    0.0000000000000000E+00
Au    0.0000000000000000E+00    1.3711590380000002E+01    0.0000000000000000E+00
Au    2.9686463999999986E+00    1.3711590380000002E+01    0.0000000000000000E+00
Au    5.9372927999999972E+00    1.3711590380000002E+01    0.0000000000000000E+00
Au    8.9059391999999953E+00    1.3711590380000002E+01    0.0000000000000000E+00
Au    1.1874585599999994E+01    1.3711590380000002E+01    0.0000000000000000E+00
Au    1.4843231999999993E+01    1.3711590380000002E+01    0.0000000000000000E+00
Au    4.1268343074910920E-09    1.7010920876580840E+00    2.4143269924143405E+00
Au    2.9529716019514467E+00    1.7016079170239504E+00    2.4088972735697256E+00
Au    5.9169878775906133E+00    1.7140108111237533E+00    2.4034658216868254E+00
Au    8.9059391985351546E+00    1.7322771863558739E+00    2.4162087669937331E+00
Au    1.1894890523243518E+01    1.7140108073305014E+00    2.4034658185570668E+00
Au    1.4858906802556088E+01    1.7016079124070684E+00    2.4088972760154310E+00
Au    1.4768115791617931E+00    4.2712027389930638E+00    2.4081975272713145E+00
Au    4.4417469603543465E+00    4.2796807866751685E+00    2.4278404382700232E+00
Au    7.4048492111505873E+00    4.2859703799472051E+00    2.4164127760949166E+00
Au    1.0407029183488861E+01    4.2859703816064814E+00    2.4164127840894625E+00
Au    1.3370131456025574E+01    4.2796807769330094E+00    2.4278404067245463E+00
Au    1.6335066830675807E+01    4.2712027401528259E+00    2.4081975296236418E+00
Au    3.6300024659221639E-09    6.8466709221500475E+00    2.4101461877966477E+00
Au    2.9574801380755438E+00    6.8442895736072638E+00    2.4049356470268455E+00
Au    5.9264881023587543E+00    6.8440449581090714E+00    2.4171354000146033E+00
Au    8.9059391998832123E+00    6.8535579666636846E+00    2.4776483306688326E+00
Au    1.1885390295173007E+01    6.8440449645664145E+00    2.4171354095243256E+00
Au    1.4854398265068728E+01    6.8442895735082709E+00    2.4049356461405527E+00
Au    1.4857462407441464E+00    9.4196730255492316E+00    2.4116907112790846E+00
Au    4.4588526680750782E+00    9.4209561249850822E+00    2.4140304145331517E+00
Au    7.4270480013671900E+00    9.4415566793165429E+00    2.4184238996592011E+00
Au    1.0384830402618903E+01    9.4415566796541892E+00    2.4184238956227828E+00
Au    1.3353025733964797E+01    9.4209561295257842E+00    2.4140304202075087E+00
Au    1.6326132159071516E+01    9.4196730259733048E+00    2.4116907114955097E+00
Au    1.9775631337093414E-09    1.1984222377060588E+01    2.4128731766509408E+00
Au    2.9653056012745065E+00    1.1991904354067623E+01    2.4107710204044430E+00
Au    5.9349381665307543E+00    1.2011699322252131E+01    2.4048119154568148E+00
Au    8.9059392006228340E+00    1.2009958964324879E+01    2.4286768205870559E+00
Au    1.1876940235344529E+01    1.2011699323335471E+01    2.4048119179296856E+00
Au    1.4846572799941697E+01    1.1991904356547522E+01    2.4107710178337531E+00
Au    1.4777867959480055E+00    1.4556452304413531E+01    2.4117061422679211E+00
Au    4.4411635526960165E+00    1.4567777109569322E+01    2.4093364111499365E+00
Au    7.4181092303355838E+00    1.4586106427325385E+01    2.4064085090783429E+00
Au    1.0393769168532888E+01    1.4586106427203420E+01    2.4064085095950274E+00
Au    1.3370714848634377E+01    1.4567777110324185E+01    2.4093364089959888E+00
Au    1.6334091606880822E+01    1.4556452301792760E+01    2.4117061412295939E+00
Au    4.1866518139063772E-09   -1.5434301572649438E-02    4.8747516402873678E+00
Au    2.9359424299211727E+00   -1.8089612463553006E-02    4.8725219251749561E+00
Au    5.8939910256815820E+00   -1.8079959474751162E-02    4.8669439772641168E+00
Au    8.9059392005017184E+00   -2.5504750707413277E-03    4.8536183881879733E+00
Au    1.1917887374197139E+01   -1.8079959913795750E-02    4.8669439756045234E+00
Au    1.4875935974800496E+01   -1.8089616603746386E-02    4.8725219267743212E+00
Au    1.4616927624684097E+00    2.5490793517308843E+00    4.8764995618395286E+00
Au    4.3907509753691158E+00    2.5216930186348021E+00    4.8669582793172532E+00
Au    7.3566662678748846E+00    2.4815130515480561E+00    4.8508098739503778E+00
Au    1.0455212133845313E+01    2.4815130535042429E+00    4.8508098726981714E+00
Au    1.3421127433380551E+01    2.5216930095106136E+00    4.8669582795295900E+00
Au    1.6350185644483155E+01    2.5490793487787013E+00    4.8764995570923269E+00
Au    1.0008125391792260E-08    5.1293103410358443E+00    4.8699699955429931E+00
Au    2.9043806213985377E+00    5.1191461672249137E+00    4.8664456704840786E+00
Au    5.8078493803612723E+00    5.0656202326005184E+00    4.9021984744952647E+00
Au    8.9059391983585510E+00    4.9209344745042651E+00    4.7852825371765384E+00
Au    1.2004029051862695E+01    5.0656202084880446E+00    4.9021983990331179E+00
Au    1.4907497793913535E+01    5.1191461675975161E+00    4.8664456662696143E+00
Au    1.4542935523563447E+00    7.7115718876200665E+00    4.8701006532962703E+00
Au    4.3470108959574238E+00    7.7113282942481964E+00    4.8537529363837049E+00
Au    7.2354170971590230E+00    7.8146672206258536E+00    4.7859567534795495E+00
Au    1.0576461303295348E+01    7.8146672351021511E+00    4.7859567539144185E+00
Au    1.3464867511778101E+01    7.7113283001372031E+00    4.8537529383183067E+00
Au    1.6357584854891204E+01    7.7115718858479934E+00    4.8701006469681278E+00
Au    3.5479026303548241E-09    1.0281490719419892E+01    4.8640896005538519E+00
Au    2.9394194761150980E+00    1.0293072682355465E+01    4.8602382574229015E+00
Au    5.8746107688991627E+00    1.0371606627249392E+01    4.8493614099390712E+00
Au    8.9059391968769468E+00    1.0418713990096803E+01    4.9005071596612426E+00
Au    1.1937267643602338E+01    1.0371606639207263E+01    4.8493614170816652E+00
Au    1.4872458931715947E+01    1.0293072688189572E+01    4.8602382625684371E+00
Au    1.4716930436011975E+00    1.2848078514888893E+01    4.8675425845646760E+00
Au    4.4145645307228909E+00    1.2875730611745130E+01    4.8704231244004932E+00
Au    7.3977297233801389E+00    1.2909698961032433E+01    4.8554009778394409E+00
Au    1.0414148677894012E+01    1.2909698961718778E+01    4.8554009766605732E+00
Au    1.3397313876903221E+01    1.2875730621133959E+01    4.8704231263949733E+00
Au    1.6340185359644494E+01    1.2848078514933229E+01    4.8675425851213259E+00
Au    7.4256967484352217E+00    5.9951194769396245E+00    6.9343440200219852E+00
Au    1.0386181737658099E+01    5.9951195030907476E+00    6.9343439825106445E+00
Au    8.9059392429029653E+00    8.5392714842399187E+00    6.9413388658452639E+00
Au    8.9059392874919379E+00    6.7929688171576910E+00    9.1211856057166685E+00
Au    8.9059345291187100E+00    6.2680048840220817E+00    1.1682723493425460E+01
Au    8.9059503344744950E+00    7.6063616788375459E+00    1.3944412932316803E+01
Au    8.9059264189851426E+00    7.1667891739983647E+00    1.6536348401209391E+01
Au    8.9059473157220577E+00    5.9984941677792341E+00    1.8879504022403392E+01
Au    8.9059369425577604E+00    7.3079225568323167E+00    2.1142060691751599E+01
Au    8.9059391736877771E+00    6.8749100808732546E+00    2.3737805560389042E+01
Au    8.9059391982735487E+00    5.1656396534926383E+00    2.5947450012124644E+01
Au    7.4414099698962701E+00    7.7078107397356321E+00    2.5928574434228821E+01
Au    1.0370468460459817E+01    7.7078107336592696E+00    2.5928574487200265E+01
Au    4.9732006652956642E-10    1.7113021077969881E+00    2.8068642649187858E+01
Au    2.9433054150190565E+00    1.7102244292493329E+00    2.8067787494336944E+01
Au    5.8903984575663069E+00    1.6744589731237194E+00    2.8078846315557353E+01
Au    8.9059392004566540E+00    1.6673417552668190E+00    2.8066460655680526E+01
Au    1.1921479941157536E+01    1.6744589755906722E+00    2.8078846318454410E+01
Au    1.4868572989527161E+01    1.7102244188840703E+00    2.8067787493188078E+01
Au    1.4725000283034559E+00    4.2791850170325363E+00    2.8071034356242883E+01
Au    4.4091630309879024E+00    4.2674948663086258E+00    2.8086952053154569E+01
Au    7.3597711404699764E+00    4.1779450113882657E+00    2.8051445218478118E+01
Au    1.0452107240773266E+01    4.1779450228919757E+00    2.8051445195603890E+01
Au    1.3402715374072592E+01    4.2674948492991556E+00    2.8086952048778027E+01
Au    1.6339378375033274E+01    4.2791850161494871E+00    2.8071034364705085E+01
Au    4.5585608795481987E-09    6.8590950526228012E+00    2.8066890627964792E+01
Au    2.9151712126609985E+00    6.8559093097219010E+00    2.8073263732725760E+01
Au    5.8177640351859461E+00    6.8728337435036195E+00    2.8042550906631039E+01
Au    8.9059391902282332E+00    6.8722575027937198E+00    2.8253783363653604E+01
Au    1.1994114378710128E+01    6.8728337165669142E+00    2.8042550924191133E+01
Au    1.4896707195732263E+01    6.8559093096100154E+00    2.8073263735412919E+01
Au    1.4648643390536595E+00    9.4359853083788447E+00    2.8064638063138119E+01
Au    4.3969294757794293E+00    9.4611352020348249E+00    2.8052836537750881E+01
Au    7.3445333115924409E+00    9.5368111303511505E+00    2.8041427176675697E+01
Au    1.0467345088427496E+01    9.5368111659274906E+00    2.8041427207145439E+01
Au    1.3414948919028797E+01    9.4611351963116075E+00    2.8052836546969413E+01
Au    1.6347014063300684E+01    9.4359853139456309E+00    2.8064638066021605E+01
Au    2.1635030417812868E-09    1.2003715781688333E+01    2.8063232009843347E+01
Au    2.9450289255801181E+00    1.2011076746661955E+01    2.8065976592788019E+01
Au    5.9019281494053715E+00    1.2053637553969386E+01    2.8078184212414186E+01
Au    8.9059391905359746E+00    1.2044199650314422E+01    2.8092322668480879E+01
Au    1.1909950256578510E+01    1.2053637563705209E+01    2.8078184212140865E+01
Au    1.4866849476423734E+01    1.2011076743520494E+01    2.8065976592394570E+01
Au    1.4731341022473736E+00    1.4567160894412423E+01    2.8068436896281536E+01
Au    4.4219882917267794E+00    1.4573709861357683E+01    2.8068213770755492E+01
Au    7.4095358892635232E+00    1.4576252113007481E+01    2.8076923918670470E+01
Au    1.0402342511491693E+01    1.4576252109828964E+01    2.8076923921383727E+01
Au    1.3389890111136836E+01    1.4573709861504122E+01    2.8068213769527791E+01
Au    1.6338744296904228E+01    1.4567160898819141E+01    2.8068436891068934E+01
Au    1.1006692226183688E-09    5.9575703636543893E-03    3.0521548762658000E+01
Au    2.9611285678927115E+00    5.1351235201299089E-03    3.0521568702736957E+01
Au    5.9316780531264275E+00   -6.6285474329024954E-03    3.0527104313433266E+01
Au    8.9059392015224219E+00    1.6357307302114048E-03    3.0521354432325431E+01
Au    1.1880200346552266E+01   -6.6285500019096655E-03    3.0527104314496739E+01
Au    1.4850749831083959E+01    5.1351231726939573E-03    3.0521568704712642E+01
Au    1.4824306045892868E+00    2.5766076887918339E+00    3.0520997991565121E+01
Au    4.4503860118601422E+00    2.5709059948141388E+00    3.0526689495167414E+01
Au    7.4129074329715108E+00    2.5664525391603181E+00    3.0517267909109894E+01
Au    1.0398970968616490E+01    2.5664525461513659E+00    3.0517267897417767E+01
Au    1.3361492388251758E+01    2.5709059911061911E+00    3.0526689497835676E+01
Au    1.6329447795426649E+01    2.5766076859461049E+00    3.0520997993023833E+01
Au    1.2391359176046768E-09    5.1468635142035906E+00    3.0521693191108763E+01
Au    2.9652237339503089E+00    5.1474811005130228E+00    3.0526300087987821E+01
Au    5.9406188847566082E+00    5.1477821923095535E+00    3.0481180843439311E+01
Au    8.9059391986843846E+00    5.1225865321699482E+00    3.0523308896734399E+01
Au    1.1871259512626530E+01    5.1477821821728567E+00    3.0481180836864734E+01
Au    1.4846654663349231E+01    5.1474811017390767E+00    3.0526300091052256E+01
Au    1.4803770074217000E+00    7.7215258695792865E+00    3.0524614663198811E+01
Au    4.4467080942779127E+00    7.7129287525697272E+00    3.0515538490068526E+01
Au    7.4034745713511585E+00    7.7251495307538001E+00    3.0525878324387804E+01
Au    1.0408403828762667E+01    7.7251495310246137E+00    3.0525878323622820E+01
Au    1.3365170302003074E+01    7.7129287500595760E+00    3.0515538487503672E+01
Au    1.6331501396189434E+01    7.7215258682206986E+00    3.0524614662964549E+01
Au    2.6635631127452328E-09    1.0291794989632512E+01    3.0521529233935521E+01
Au    2.9701222744472151E+00    1.0283370683248425E+01    3.0518352156539894E+01
Au    5.9334505047822974E+00    1.0292833208501900E+01    3.0515865624885773E+01
Au    8.9059391923236415E+00    1.0276317444532632E+01    3.0481104037199717E+01
Au    1.1878427899300577E+01    1.0292833208343536E+01    3.0515865628715950E+01
Au    1.4841756128705802E+01    1.0283370685454095E+01    3.0518352162123524E+01
Au    1.4793579724030037E+00    1.2859236911021140E+01    3.0522153313604701E+01
Au    4.4380902848664627E+00    1.2857606859453329E+01    3.0525580048172571E+01
Au    7.4169481147295837E+00    1.2851922277000735E+01    3.0526702374415262E+01
Au    1.0394930283522431E+01    1.2851922274499625E+01    3.0526702373484660E+01
Au    1.3373788115814898E+01    1.2857606859757585E+01    3.0525580050438194E+01
Au    1.6332520427656402E+01    1.2859236910532587E+01    3.0522153310936357E+01
     &END COORD
     &KIND Au
       BASIS_SET TZVP-MOLOPT-SR-GTH-q11
       ELEMENT Au
       POTENTIAL GTH-PBE-q11
       &POTENTIAL
1 0 10
0.5900000000000000E+00 1  0.1051717881000000E+02
3
0.5438473300000000E+00 2  0.5786811030000000E+01 -0.2250679660000000E+01
0.2905614950000000E+01
0.6091729800000000E+00 2  0.4284048730000000E+01 -0.4071285200000000E+01
0.4817209620000000E+01
0.4373092200000000E+00 2 -0.7403281240000000E+01  0.3010193070000000E+01
-0.3413238110000000E+01
       &END POTENTIAL
     &END KIND
     &TOPOLOGY
       COORD_FILE_NAME junction_65.xyz
       COORD_FILE_FORMAT  XYZ
       NUMBER_OF_ATOMS  193
       MULTIPLE_UNIT_CELL  1 1 1
     &END TOPOLOGY
   &END SUBSYS
   &PRINT
     &TOTAL_NUMBERS  ON
     &END TOTAL_NUMBERS
   &END PRINT
 &END FORCE_EVAL
