 # Version information for this restart file 
 # current date 2022-05-04 02:03:16.538
 # current working dir /rds/general/user/jj1921/home/junction/ortho/cell_65
 # Program compiled at                              Thu 12 Jul 13:52:12 BST 2018
 # Program compiled on                                      build-2.hpc.ic.ac.uk
 # Program compiled for                                       Linux-x86-64-intel
 # Source code revision number                                         svn:18464
 &GLOBAL
   PRINT_LEVEL  MEDIUM
   PROJECT_NAME Au_junction
   RUN_TYPE  CELL_OPT
 &END GLOBAL
 &MOTION
   &CELL_OPT
     OPTIMIZER  BFGS
     STEP_START_VAL  125
     TYPE  DIRECT_CELL_OPT
     KEEP_ANGLES  T
     KEEP_SYMMETRY  T
     CONSTRAINT  XY
   &END CELL_OPT
   &CONSTRAINT
     &FIXED_ATOMS
       COMPONENTS_TO_FIX  XYZ
       LIST  1..36
     &END FIXED_ATOMS
   &END CONSTRAINT
   &PRINT
     &TRAJECTORY  SILENT
       &EACH
         CELL_OPT  1
       &END EACH
     &END TRAJECTORY
   &END PRINT
 &END MOTION
 &FORCE_EVAL
   METHOD  QS
   STRESS_TENSOR  ANALYTICAL
   &DFT
     BASIS_SET_FILE_NAME /rds/general/user/jj1921/home/BASIS_COM_MOLOPT_GTH
     POTENTIAL_FILE_NAME /rds/general/user/jj1921/home/GTH_POTENTIALS
     &SCF
       MAX_SCF  500
       EPS_SCF     9.9999999999999995E-08
       CHOLESKY  INVERSE
       SCF_GUESS  ATOMIC
       ADDED_MOS  20
       &DIAGONALIZATION  T
         ALGORITHM  STANDARD
       &END DIAGONALIZATION
       &SMEAR  T
         METHOD  FERMI_DIRAC
         ELECTRONIC_TEMPERATURE     3.0000000000000000E+02
       &END SMEAR
       &MIXING  T
         METHOD  BROYDEN_MIXING
         ALPHA     4.0000000000000002E-01
         BETA     5.0000000000000000E-01
         NBUFFER  8
       &END MIXING
     &END SCF
     &QS
       EPS_DEFAULT     1.0000000000000000E-14
       METHOD  GPW
     &END QS
     &MGRID
       NGRIDS  4
       CUTOFF     5.0000000000000000E+02
       REL_CUTOFF     4.0000000000000000E+01
     &END MGRID
     &XC
       DENSITY_CUTOFF     1.0000000000000000E-10
       GRADIENT_CUTOFF     1.0000000000000000E-10
       TAU_CUTOFF     1.0000000000000000E-10
       &XC_FUNCTIONAL  NO_SHORTCUT
         &PBE  T
         &END PBE
       &END XC_FUNCTIONAL
     &END XC
     &KPOINTS
       SCHEME MONKHORST-PACK 4 4 1
       FULL_GRID  T
     &END KPOINTS
   &END DFT
   &SUBSYS
     &CELL
       A     1.7811878396732904E+01    0.0000000000000000E+00    0.0000000000000000E+00
       B     0.0000000000000000E+00    1.5425539180689926E+01    0.0000000000000000E+00
       C     0.0000000000000000E+00    0.0000000000000000E+00    3.2543254181020956E+01
       PERIODIC  XYZ
       MULTIPLE_UNIT_CELL  1 1 1
       SYMMETRY  ORTHORHOMBIC
     &END CELL
     &COORD
Au    1.4843231999999993E+00    8.5697439999999980E-01    0.0000000000000000E+00
Au    4.4529695999999976E+00    8.5697439999999980E-01    0.0000000000000000E+00
Au    7.4216159999999967E+00    8.5697439999999980E-01    0.0000000000000000E+00
Au    1.0390262399999997E+01    8.5697439999999980E-01    0.0000000000000000E+00
Au    1.3358908799999995E+01    8.5697439999999980E-01    0.0000000000000000E+00
Au    1.6327555199999992E+01    8.5697439999999980E-01    0.0000000000000000E+00
Au    0.0000000000000000E+00    3.4278975999999992E+00    0.0000000000000000E+00
Au    2.9686463999999986E+00    3.4278975999999992E+00    0.0000000000000000E+00
Au    5.9372927999999972E+00    3.4278975999999992E+00    0.0000000000000000E+00
Au    8.9059391999999953E+00    3.4278975999999992E+00    0.0000000000000000E+00
Au    1.1874585599999994E+01    3.4278975999999992E+00    0.0000000000000000E+00
Au    1.4843231999999993E+01    3.4278975999999992E+00    0.0000000000000000E+00
Au    1.4843231999999993E+00    5.9988207899999981E+00    0.0000000000000000E+00
Au    4.4529695999999976E+00    5.9988207899999981E+00    0.0000000000000000E+00
Au    7.4216159999999967E+00    5.9988207899999981E+00    0.0000000000000000E+00
Au    1.0390262399999997E+01    5.9988207899999981E+00    0.0000000000000000E+00
Au    1.3358908799999995E+01    5.9988207899999981E+00    0.0000000000000000E+00
Au    1.6327555199999992E+01    5.9988207899999981E+00    0.0000000000000000E+00
Au    0.0000000000000000E+00    8.5697439899999992E+00    0.0000000000000000E+00
Au    2.9686463999999986E+00    8.5697439899999992E+00    0.0000000000000000E+00
Au    5.9372927999999972E+00    8.5697439899999992E+00    0.0000000000000000E+00
Au    8.9059391999999953E+00    8.5697439899999992E+00    0.0000000000000000E+00
Au    1.1874585599999994E+01    8.5697439899999992E+00    0.0000000000000000E+00
Au    1.4843231999999993E+01    8.5697439899999992E+00    0.0000000000000000E+00
Au    1.4843231999999993E+00    1.1140667189999997E+01    0.0000000000000000E+00
Au    4.4529695999999976E+00    1.1140667189999997E+01    0.0000000000000000E+00
Au    7.4216159999999967E+00    1.1140667189999997E+01    0.0000000000000000E+00
Au    1.0390262399999997E+01    1.1140667189999997E+01    0.0000000000000000E+00
Au    1.3358908799999995E+01    1.1140667189999997E+01    0.0000000000000000E+00
Au    1.6327555199999992E+01    1.1140667189999997E+01    0.0000000000000000E+00
Au    0.0000000000000000E+00    1.3711590380000002E+01    0.0000000000000000E+00
Au    2.9686463999999986E+00    1.3711590380000002E+01    0.0000000000000000E+00
Au    5.9372927999999972E+00    1.3711590380000002E+01    0.0000000000000000E+00
Au    8.9059391999999953E+00    1.3711590380000002E+01    0.0000000000000000E+00
Au    1.1874585599999994E+01    1.3711590380000002E+01    0.0000000000000000E+00
Au    1.4843231999999993E+01    1.3711590380000002E+01    0.0000000000000000E+00
Au    3.1053417809005698E-08    1.6929499450724546E+00    2.4103008232834853E+00
Au    2.9550519250194833E+00    1.6981189392386591E+00    2.4078950151796774E+00
Au    5.9208835923977219E+00    1.7125373018355297E+00    2.4064032854797910E+00
Au    8.9059391902847853E+00    1.7395263351604842E+00    2.4230814559158671E+00
Au    1.1890994821428006E+01    1.7125372640704322E+00    2.4064032593987545E+00
Au    1.4856826534961460E+01    1.6981188811173151E+00    2.4078950329310187E+00
Au    1.4784406466842932E+00    4.2632191769888834E+00    2.4087823364196055E+00
Au    4.4477076834877289E+00    4.2730393994489768E+00    2.4290821804284639E+00
Au    7.4085938699276772E+00    4.2876574543342940E+00    2.4224298829201065E+00
Au    1.0403284463540684E+01    4.2876574709761224E+00    2.4224299644873950E+00
Au    1.3364170942899001E+01    4.2730392737572638E+00    2.4290817899642039E+00
Au    1.6333437879089530E+01    4.2632191815956846E+00    2.4087823458785920E+00
Au    2.8379679115780861E-08    6.8374643085570153E+00    2.4091386128723720E+00
Au    2.9581262294456914E+00    6.8338299785995202E+00    2.4049483055406555E+00
Au    5.9286591308131422E+00    6.8383728591453128E+00    2.4192296403809648E+00
Au    8.9059391906159373E+00    6.8562454347905115E+00    2.4901404472397726E+00
Au    1.1883219244215827E+01    6.8383729235447692E+00    2.4192297134213896E+00
Au    1.4853752214029063E+01    6.8338299728235850E+00    2.4049482905957302E+00
Au    1.4889931521447666E+00    9.4097098395623764E+00    2.4093842726526189E+00
Au    4.4643980022240672E+00    9.4098127509102945E+00    2.4189353548767620E+00
Au    7.4282594835466442E+00    9.4449147274054184E+00    2.4143602123475634E+00
Au    1.0383618946817561E+01    9.4449147423644675E+00    2.4143601609282950E+00
Au    1.3347480418634564E+01    9.4098127907340690E+00    2.4189354056339218E+00
Au    1.6322885247990577E+01    9.4097098438658762E+00    2.4093842537757482E+00
Au   -1.1390999019896276E-09    1.1974973367738402E+01    2.4074093545012980E+00
Au    2.9714730443419914E+00    1.1982244531613407E+01    2.4069760539611238E+00
Au    5.9378176607655959E+00    1.2014025668212314E+01    2.4043139938462379E+00
Au    8.9059392045235146E+00    1.2018897691592086E+01    2.4192193957035619E+00
Au    1.1874060746004934E+01    1.2014025677847838E+01    2.4043140112069774E+00
Au    1.4840405361865658E+01    1.1982244554457713E+01    2.4069760272735876E+00
Au    1.4807601938467483E+00    1.4547737785562406E+01    2.4086030359443700E+00
Au    4.4445982881616626E+00    1.4566923085942694E+01    2.4080580578985042E+00
Au    7.4211679523346890E+00    1.4591383682711026E+01    2.4076101249028508E+00
Au    1.0390710427996618E+01    1.4591383688353046E+01    2.4076101304819391E+00
Au    1.3367280125509836E+01    1.4566923081596538E+01    2.4080580390245703E+00
Au    1.6331118230281014E+01    1.4547737761592067E+01    2.4086030135610623E+00
Au    2.6055336079599225E-08   -3.9833596543492972E-02    4.8667056084238487E+00
Au    2.9322363933106614E+00   -2.9331378910167287E-02    4.8710966747576903E+00
Au    5.8889570382208838E+00   -2.1610785631745139E-02    4.8730916920695435E+00
Au    8.9059392056226816E+00    3.4062819441536391E-03    4.8606928318642781E+00
Au    1.1922921354278941E+01   -2.1610784080907657E-02    4.8730916708844525E+00
Au    1.4879642054060552E+01   -2.9331435011533194E-02    4.8710966975158270E+00
Au    1.4582096084724030E+00    2.5289860000381994E+00    4.8748861091253692E+00
Au    4.3843465033742079E+00    2.5105055633402698E+00    4.8702240959281626E+00
Au    7.3473696986159425E+00    2.4736571010803350E+00    4.8646942450491615E+00
Au    1.0464508699134862E+01    2.4736571438267609E+00    4.8646942322083007E+00
Au    1.3427532020816157E+01    2.5105053980475547E+00    4.8702240916687325E+00
Au    1.6353668872022094E+01    2.5289859729078801E+00    4.8748860710251094E+00
Au    9.8253992139983138E-08    5.1084418859406773E+00    4.8690560521241002E+00
Au    2.9008507521227362E+00    5.1017767902293736E+00    4.8699512386044024E+00
Au    5.8023829406428487E+00    5.0545782732175066E+00    4.9079096007637570E+00
Au    8.9059391464468884E+00    4.8966374942833770E+00    4.8036840870711117E+00
Au    1.2009495958092570E+01    5.0545778711933798E+00    4.9079086648406944E+00
Au    1.4911027870839877E+01    5.1017767870133506E+00    4.8699511991847144E+00
Au    1.4518535479848913E+00    7.6931647552821438E+00    4.8683588863458374E+00
Au    4.3353061040867971E+00    7.6972043502426990E+00    4.8605038302126342E+00
Au    7.2130247189436290E+00    7.8441857383064431E+00    4.7787105570449260E+00
Au    1.0598853664159849E+01    7.8441859450749307E+00    4.7787104483991314E+00
Au    1.3476572370979342E+01    7.6972043742910090E+00    4.8605038285059381E+00
Au    1.6360024929200993E+01    7.6931647594990453E+00    4.8683588153244211E+00
Au    1.4044381564329672E-08    1.0262844703460798E+01    4.8562928118882258E+00
Au    2.9394398510942357E+00    1.0280962405755119E+01    4.8556760957439113E+00
Au    5.8688820059243820E+00    1.0387375917481267E+01    4.8526963626154602E+00
Au    8.9059391170240811E+00    1.0447725025609945E+01    4.8828218103324783E+00
Au    1.1942996525262195E+01    1.0387376044528626E+01    4.8526964094354312E+00
Au    1.4872438619570277E+01    1.0280962438882439E+01    4.8556761362260437E+00
Au    1.4713094664181283E+00    1.2829240636937623E+01    4.8593278828583122E+00
Au    4.4100459428583756E+00    1.2875193158838359E+01    4.8685289853313405E+00
Au    7.3957728475992939E+00    1.2922115407548434E+01    4.8559031103816803E+00
Au    1.0416105558190358E+01    1.2922115399103680E+01    4.8559030904995453E+00
Au    1.3401832513838093E+01    1.2875193236761275E+01    4.8685290002760189E+00
Au    1.6340568939208040E+01    1.2829240645422271E+01    4.8593278895202072E+00
Au    7.4194436544966500E+00    6.0373803783855271E+00    6.9123695390850175E+00
Au    1.0392435936748457E+01    6.0373806523281077E+00    6.9123689045855317E+00
Au    8.9059397767649138E+00    8.5800521073615990E+00    6.9133336849155489E+00
Au    8.9059403999365259E+00    6.8416748314382669E+00    9.0805365162754281E+00
Au    8.9058954511808412E+00    6.2230779330432862E+00    1.1619968686250223E+01
Au    8.9060337614096579E+00    7.7863263329916395E+00    1.3733831858738524E+01
Au    8.9058364209043130E+00    7.3241849468446922E+00    1.6315144822507776E+01
Au    8.9060045591508281E+00    5.9036852410672633E+00    1.8512201355335595E+01
Au    8.9059200834592094E+00    7.2535355307439389E+00    2.0754122902612810E+01
Au    8.9059393089693479E+00    6.8525414694577549E+00    2.3350867734253267E+01
Au    8.9059392109912299E+00    5.1416383066558886E+00    2.5557795036824199E+01
Au    7.4385769823966745E+00    7.6876593120184396E+00    2.5537945292805915E+01
Au    1.0373301826299421E+01    7.6876594249108869E+00    2.5537945890886895E+01
Au   -2.3052558828560981E-08    1.7124096356129590E+00    2.7694992592819041E+01
Au    2.9436234026369887E+00    1.7100972037346376E+00    2.7686115862408595E+01
Au    5.8932905353389140E+00    1.6719554690863005E+00    2.7686013085411396E+01
Au    8.9059391817894316E+00    1.6700666001013451E+00    2.7665553029333516E+01
Au    1.1918587844224266E+01    1.6719554557550900E+00    2.7686013107808098E+01
Au    1.4868255043164648E+01    1.7100971255762210E+00    2.7686115872555558E+01
Au    1.4696595277913256E+00    4.2838507345743757E+00    2.7687580067370700E+01
Au    4.4006657236789630E+00    4.2640608009280276E+00    2.7694174486657495E+01
Au    7.3503910938760919E+00    4.1775657395443702E+00    2.7659172911435501E+01
Au    1.0461487184225577E+01    4.1775658186548004E+00    2.7659172690879064E+01
Au    1.3411212732799843E+01    4.2640606597776802E+00    2.7694174425569411E+01
Au    1.6342218896692618E+01    4.2838507128088903E+00    2.7687580164467146E+01
Au    2.3726470039658514E-08    6.8706307641806124E+00    2.7682312449420387E+01
Au    2.9112912791506806E+00    6.8607113760238096E+00    2.7680988766596922E+01
Au    5.8088939501468246E+00    6.8710694840622928E+00    2.7649750622621795E+01
Au    8.9059391217831916E+00    6.8670359526869547E+00    2.7865333425056495E+01
Au    1.2002984619735285E+01    6.8710692124289086E+00    2.7649750829372085E+01
Au    1.4900587203743290E+01    6.8607113900460321E+00    2.7680988786911247E+01
Au    1.4650320441696707E+00    9.4470221058411319E+00    2.7678281080901712E+01
Au    4.3956157385976180E+00    9.4652088621177572E+00    2.7654571240069966E+01
Au    7.3432436304460911E+00    9.5364906859618070E+00    2.7636060980029477E+01
Au    1.0468634669326136E+01    9.5364910845424067E+00    2.7636061319437417E+01
Au    1.3416262590683061E+01    9.4652088459942032E+00    2.7654571318894167E+01
Au    1.6346846358020773E+01    9.4470221345179244E+00    2.7678281131795430E+01
Au    9.9575084076166772E-10    1.2013843231789030E+01    2.7684836887269061E+01
Au    2.9486681332762439E+00    1.2018285235171531E+01    2.7680681774249745E+01
Au    5.9053947444198656E+00    1.2053047096651262E+01    2.7679835635745981E+01
Au    8.9059391052044692E+00    1.2042846306321026E+01    2.7687146102616033E+01
Au    1.1906483698804196E+01    1.2053047182193851E+01    2.7679835632762337E+01
Au    1.4863210279598249E+01    1.2018285229220290E+01    2.7680681791700884E+01
Au    1.4746783461287787E+00    1.4571500154205514E+01    2.7693113217448424E+01
Au    4.4267620407497033E+00    1.4574791637095851E+01    2.7685347769674220E+01
Au    7.4121832409268631E+00    1.4574213737857182E+01    2.7683974189861154E+01
Au    1.0399695149918173E+01    1.4574213725753209E+01    2.7683974219981536E+01
Au    1.3385116378938543E+01    1.4574791650802723E+01    2.7685347775309705E+01
Au    1.6337200037298384E+01    1.4571500180256830E+01    2.7693113173220439E+01
Au   -7.4384183875834834E-09    5.0726160834305587E-03    3.0140795847873900E+01
Au    2.9675632161546130E+00    7.2057090539644946E-03    3.0137607160139915E+01
Au    5.9400655298539506E+00   -6.2465664815787806E-03    3.0137968404312311E+01
Au    8.9059392101522779E+00    5.6357494867888391E-03    3.0127468489437529E+01
Au    1.1871812862635865E+01   -6.2465793611659352E-03    3.0137968429369888E+01
Au    1.4844315171053323E+01    7.2056997361508168E-03    3.0137607181879805E+01
Au    1.4858038294763787E+00    2.5803983116693967E+00    3.0135978987157351E+01
Au    4.4565017159800870E+00    2.5724087567767082E+00    3.0136347104676812E+01
Au    7.4159270454297674E+00    2.5703539207491852E+00    3.0125519730754316E+01
Au    1.0395951357612805E+01    2.5703539746571322E+00    3.0125519617868612E+01
Au    1.3355376670328729E+01    2.5724087377917839E+00    3.0136347117771773E+01
Au    1.6326074577972687E+01    2.5803982835399997E+00    3.0135979014446725E+01
Au    7.4603166415466570E-09    5.1530163300883363E+00    3.0135411706756805E+01
Au    2.9676616872875661E+00    5.1507118111861816E+00    3.0135982204559792E+01
Au    5.9405176737572631E+00    5.1509099211091485E+00    3.0087659446180890E+01
Au    8.9059391922882583E+00    5.1268272057344193E+00    3.0129503470477058E+01
Au    1.1871360696219082E+01    5.1509098286565580E+00    3.0087659392916777E+01
Au    1.4844216686136633E+01    5.1507118246695240E+00    3.0135982235918824E+01
Au    1.4836991988513464E+00    7.7252014724281146E+00    3.0135348932435679E+01
Au    4.4492860414777819E+00    7.7150408042672325E+00    3.0123931254545028E+01
Au    7.4062007606958824E+00    7.7232645390026278E+00    3.0129603876515464E+01
Au    1.0405677645617914E+01    7.7232645388278129E+00    3.0129603874909613E+01
Au    1.3362592335535515E+01    7.7150407971705155E+00    3.0123931226234273E+01
Au    1.6328179222890668E+01    7.7252014598523555E+00    3.0135348942590557E+01
Au    1.3265806633146443E-08    1.0293125449501263E+01    3.0134099764871024E+01
Au    2.9771251060167101E+00    1.0283696864323501E+01    3.0128894459278715E+01
Au    5.9385924099614735E+00    1.0290833533262274E+01    3.0121354802949842E+01
Au    8.9059391106270773E+00    1.0269423562933014E+01    3.0078796266772127E+01
Au    1.1873286013064098E+01    1.0290833541640994E+01    3.0121354845289613E+01
Au    1.4834753321266644E+01    1.0283696880767327E+01    3.0128894507227947E+01
Au    1.4847219935034777E+00    1.2858297381214266E+01    3.0138056648529041E+01
Au    4.4490875460636561E+00    1.2855399657971518E+01    3.0136331450700393E+01
Au    7.4225321777479314E+00    1.2846968133374048E+01    3.0133414494474337E+01
Au    1.0389346198184978E+01    1.2846968107768975E+01    3.0133414484639182E+01
Au    1.3362790852155353E+01    1.2855399662065297E+01    3.0136331475192684E+01
Au    1.6327156412126914E+01    1.2858297373448883E+01    3.0138056641917142E+01
     &END COORD
     &KIND Au
       BASIS_SET TZVP-MOLOPT-SR-GTH-q11
       ELEMENT Au
       POTENTIAL GTH-PBE-q11
       &POTENTIAL
1 0 10
0.5900000000000000E+00 1  0.1051717881000000E+02
3
0.5438473300000000E+00 2  0.5786811030000000E+01 -0.2250679660000000E+01
0.2905614950000000E+01
0.6091729800000000E+00 2  0.4284048730000000E+01 -0.4071285200000000E+01
0.4817209620000000E+01
0.4373092200000000E+00 2 -0.7403281240000000E+01  0.3010193070000000E+01
-0.3413238110000000E+01
       &END POTENTIAL
     &END KIND
     &TOPOLOGY
       COORD_FILE_NAME junction_65.xyz
       COORD_FILE_FORMAT  XYZ
       NUMBER_OF_ATOMS  193
       MULTIPLE_UNIT_CELL  1 1 1
     &END TOPOLOGY
   &END SUBSYS
   &PRINT
     &TOTAL_NUMBERS  ON
     &END TOTAL_NUMBERS
   &END PRINT
 &END FORCE_EVAL
