 # Version information for this restart file 
 # current date 2022-05-04 01:17:36.075
 # current working dir /rds/general/user/jj1921/home/junction/ortho/cell_65
 # Program compiled at                              Thu 12 Jul 13:52:12 BST 2018
 # Program compiled on                                      build-2.hpc.ic.ac.uk
 # Program compiled for                                       Linux-x86-64-intel
 # Source code revision number                                         svn:18464
 &GLOBAL
   PRINT_LEVEL  MEDIUM
   PROJECT_NAME Au_junction
   RUN_TYPE  CELL_OPT
 &END GLOBAL
 &MOTION
   &CELL_OPT
     OPTIMIZER  BFGS
     STEP_START_VAL  124
     TYPE  DIRECT_CELL_OPT
     KEEP_ANGLES  T
     KEEP_SYMMETRY  T
     CONSTRAINT  XY
   &END CELL_OPT
   &CONSTRAINT
     &FIXED_ATOMS
       COMPONENTS_TO_FIX  XYZ
       LIST  1..36
     &END FIXED_ATOMS
   &END CONSTRAINT
   &PRINT
     &TRAJECTORY  SILENT
       &EACH
         CELL_OPT  1
       &END EACH
     &END TRAJECTORY
   &END PRINT
 &END MOTION
 &FORCE_EVAL
   METHOD  QS
   STRESS_TENSOR  ANALYTICAL
   &DFT
     BASIS_SET_FILE_NAME /rds/general/user/jj1921/home/BASIS_COM_MOLOPT_GTH
     POTENTIAL_FILE_NAME /rds/general/user/jj1921/home/GTH_POTENTIALS
     &SCF
       MAX_SCF  500
       EPS_SCF     9.9999999999999995E-08
       CHOLESKY  INVERSE
       SCF_GUESS  ATOMIC
       ADDED_MOS  20
       &DIAGONALIZATION  T
         ALGORITHM  STANDARD
       &END DIAGONALIZATION
       &SMEAR  T
         METHOD  FERMI_DIRAC
         ELECTRONIC_TEMPERATURE     3.0000000000000000E+02
       &END SMEAR
       &MIXING  T
         METHOD  BROYDEN_MIXING
         ALPHA     4.0000000000000002E-01
         BETA     5.0000000000000000E-01
         NBUFFER  8
       &END MIXING
     &END SCF
     &QS
       EPS_DEFAULT     1.0000000000000000E-14
       METHOD  GPW
     &END QS
     &MGRID
       NGRIDS  4
       CUTOFF     5.0000000000000000E+02
       REL_CUTOFF     4.0000000000000000E+01
     &END MGRID
     &XC
       DENSITY_CUTOFF     1.0000000000000000E-10
       GRADIENT_CUTOFF     1.0000000000000000E-10
       TAU_CUTOFF     1.0000000000000000E-10
       &XC_FUNCTIONAL  NO_SHORTCUT
         &PBE  T
         &END PBE
       &END XC_FUNCTIONAL
     &END XC
     &KPOINTS
       SCHEME MONKHORST-PACK 4 4 1
       FULL_GRID  T
     &END KPOINTS
   &END DFT
   &SUBSYS
     &CELL
       A     1.7811878396732904E+01    0.0000000000000000E+00    0.0000000000000000E+00
       B     0.0000000000000000E+00    1.5425539180689926E+01    0.0000000000000000E+00
       C     0.0000000000000000E+00    0.0000000000000000E+00    3.2567952097888281E+01
       PERIODIC  XYZ
       MULTIPLE_UNIT_CELL  1 1 1
       SYMMETRY  ORTHORHOMBIC
     &END CELL
     &COORD
Au    1.4843231999999993E+00    8.5697439999999980E-01    0.0000000000000000E+00
Au    4.4529695999999976E+00    8.5697439999999980E-01    0.0000000000000000E+00
Au    7.4216159999999967E+00    8.5697439999999980E-01    0.0000000000000000E+00
Au    1.0390262399999997E+01    8.5697439999999980E-01    0.0000000000000000E+00
Au    1.3358908799999995E+01    8.5697439999999980E-01    0.0000000000000000E+00
Au    1.6327555199999992E+01    8.5697439999999980E-01    0.0000000000000000E+00
Au    0.0000000000000000E+00    3.4278975999999992E+00    0.0000000000000000E+00
Au    2.9686463999999986E+00    3.4278975999999992E+00    0.0000000000000000E+00
Au    5.9372927999999972E+00    3.4278975999999992E+00    0.0000000000000000E+00
Au    8.9059391999999953E+00    3.4278975999999992E+00    0.0000000000000000E+00
Au    1.1874585599999994E+01    3.4278975999999992E+00    0.0000000000000000E+00
Au    1.4843231999999993E+01    3.4278975999999992E+00    0.0000000000000000E+00
Au    1.4843231999999993E+00    5.9988207899999981E+00    0.0000000000000000E+00
Au    4.4529695999999976E+00    5.9988207899999981E+00    0.0000000000000000E+00
Au    7.4216159999999967E+00    5.9988207899999981E+00    0.0000000000000000E+00
Au    1.0390262399999997E+01    5.9988207899999981E+00    0.0000000000000000E+00
Au    1.3358908799999995E+01    5.9988207899999981E+00    0.0000000000000000E+00
Au    1.6327555199999992E+01    5.9988207899999981E+00    0.0000000000000000E+00
Au    0.0000000000000000E+00    8.5697439899999992E+00    0.0000000000000000E+00
Au    2.9686463999999986E+00    8.5697439899999992E+00    0.0000000000000000E+00
Au    5.9372927999999972E+00    8.5697439899999992E+00    0.0000000000000000E+00
Au    8.9059391999999953E+00    8.5697439899999992E+00    0.0000000000000000E+00
Au    1.1874585599999994E+01    8.5697439899999992E+00    0.0000000000000000E+00
Au    1.4843231999999993E+01    8.5697439899999992E+00    0.0000000000000000E+00
Au    1.4843231999999993E+00    1.1140667189999997E+01    0.0000000000000000E+00
Au    4.4529695999999976E+00    1.1140667189999997E+01    0.0000000000000000E+00
Au    7.4216159999999967E+00    1.1140667189999997E+01    0.0000000000000000E+00
Au    1.0390262399999997E+01    1.1140667189999997E+01    0.0000000000000000E+00
Au    1.3358908799999995E+01    1.1140667189999997E+01    0.0000000000000000E+00
Au    1.6327555199999992E+01    1.1140667189999997E+01    0.0000000000000000E+00
Au    0.0000000000000000E+00    1.3711590380000002E+01    0.0000000000000000E+00
Au    2.9686463999999986E+00    1.3711590380000002E+01    0.0000000000000000E+00
Au    5.9372927999999972E+00    1.3711590380000002E+01    0.0000000000000000E+00
Au    8.9059391999999953E+00    1.3711590380000002E+01    0.0000000000000000E+00
Au    1.1874585599999994E+01    1.3711590380000002E+01    0.0000000000000000E+00
Au    1.4843231999999993E+01    1.3711590380000002E+01    0.0000000000000000E+00
Au    2.8591553969546633E-08    1.6936423534453398E+00    2.4100013423825248E+00
Au    2.9549658986031315E+00    1.6988000790149262E+00    2.4078973813769240E+00
Au    5.9209184400275658E+00    1.7123184439393313E+00    2.4063523503370363E+00
Au    8.9059391909449221E+00    1.7393750277674493E+00    2.4225151285497324E+00
Au    1.1890959972949213E+01    1.7123184086776759E+00    2.4063523258319477E+00
Au    1.4856912555502189E+01    1.6988000270157657E+00    2.4078973979761336E+00
Au    1.4784863123684457E+00    4.2639097074542160E+00    2.4087373879114757E+00
Au    4.4480402982528986E+00    4.2737449664909217E+00    2.4289054332097715E+00
Au    7.4085548839776445E+00    4.2878397982363827E+00    2.4221225368290007E+00
Au    1.0403323455613881E+01    4.2878398128670385E+00    2.4221226119374260E+00
Au    1.3363838306671601E+01    4.2737448532465994E+00    2.4289050774954331E+00
Au    1.6333392201257102E+01    4.2639097118001743E+00    2.4087373967958996E+00
Au    2.5733694718703534E-08    6.8379783601954029E+00    2.4089455536540951E+00
Au    2.9580230483842427E+00    6.8342288843346219E+00    2.4048368432443348E+00
Au    5.9288176937710331E+00    6.8387416294123176E+00    2.4190867049557880E+00
Au    8.9059391922780211E+00    6.8565799692318059E+00    2.4885680383928639E+00
Au    1.1883060682129052E+01    6.8387416897524140E+00    2.4190867735159540E+00
Au    1.4853855391244547E+01    6.8342288793851500E+00    2.4048368294646525E+00
Au    1.4890064347930498E+00    9.4101577070070590E+00    2.4092024483803360E+00
Au    4.4643034363902983E+00    9.4099329529528521E+00    2.4186655245208275E+00
Au    7.4283168418126193E+00    9.4445068995384744E+00    2.4143957166728658E+00
Au    1.0383561586275633E+01    9.4445069106295421E+00    2.4143956723334812E+00
Au    1.3347574982025616E+01    9.4099329891819092E+00    2.4186655708384506E+00
Au    1.6322871965424977E+01    9.4101577111055494E+00    2.4092024312285703E+00
Au   -9.7315745066727522E-10    1.1975216090122169E+01    2.4073908941790410E+00
Au    2.9717705649569037E+00    1.1982516864889385E+01    2.4068216684705681E+00
Au    5.9380188589573386E+00    1.2013987186582328E+01    2.4041788845956389E+00
Au    8.9059392043715508E+00    1.2017658084781154E+01    2.4193588604128036E+00
Au    1.1873859547512797E+01    1.2013987194925820E+01    2.4041789010539945E+00
Au    1.4840107840429438E+01    1.1982516885740486E+01    2.4068216441822514E+00
Au    1.4810057607910356E+00    1.4548397910354064E+01    2.4086801125526396E+00
Au    4.4446501735088493E+00    1.4567094299035711E+01    2.4079612604953220E+00
Au    7.4215305426230289E+00    1.4590968961965640E+01    2.4071975604267415E+00
Au    1.0390347839541326E+01    1.4590968966822128E+01    2.4071975654735214E+00
Au    1.3367228238829563E+01    1.4567094295344056E+01    2.4079612434806870E+00
Au    1.6330872661301402E+01    1.4548397888047441E+01    2.4086800924232401E+00
Au    2.3859916557729780E-08   -3.8531429214092729E-02    4.8661544032936765E+00
Au    2.9326592379156975E+00   -2.8507480687657308E-02    4.8707919563035809E+00
Au    5.8897287810600671E+00   -2.1763638762599263E-02    4.8724456879360636E+00
Au    8.9059392050995072E+00    3.0298852738643509E-03    4.8598419789147433E+00
Au    1.1922149612711923E+01   -2.1763637189950315E-02    4.8724456689612579E+00
Au    1.4879219204512861E+01   -2.8507531175434461E-02    4.8707919761840497E+00
Au    1.4580758285524651E+00    2.5301976583377770E+00    4.8743116826126975E+00
Au    4.3846581016740664E+00    2.5110393889015579E+00    4.8696402913849459E+00
Au    7.3479159884670295E+00    2.4739600110100257E+00    4.8638691208572897E+00
Au    1.0463962410002937E+01    2.4739600494705019E+00    4.8638691094699862E+00
Au    1.3427220409528298E+01    2.5110392406499873E+00    4.8696402881215759E+00
Au    1.6353802643983439E+01    2.5301976339754906E+00    4.8743116467704075E+00
Au    8.8309801582971254E-08    5.1095880520114996E+00    4.8684637972411471E+00
Au    2.9008473454999417E+00    5.1028539765278840E+00    4.8693018399448720E+00
Au    5.8019153656582558E+00    5.0546793654189965E+00    4.9070670830983794E+00
Au    8.9059391489476205E+00    4.8980787896997118E+00    4.8042381304960724E+00
Au    1.2009963492800283E+01    5.0546790006804772E+00    4.9070662232295010E+00
Au    1.4911031255970144E+01    5.1028539745046579E+00    4.8693018050722223E+00
Au    1.4520189198097000E+00    7.6941371425491196E+00    4.8679317288692623E+00
Au    4.3357832832355250E+00    7.6981029666041874E+00    4.8599355885876285E+00
Au    7.2141547500849734E+00    7.8427045944704883E+00    4.7806057091679950E+00
Au    1.0597723630896754E+01    7.8427047810199451E+00    4.7806056196015545E+00
Au    1.3476095184272710E+01    7.6981029901744567E+00    4.8599355872336005E+00
Au    1.6359859550311807E+01    7.6941371459706653E+00    4.8679316621489228E+00
Au    1.2833051778518834E-08    1.0263818526786460E+01    4.8561554605355894E+00
Au    2.9396399473628243E+00    1.0281948227983909E+01    4.8554375910923095E+00
Au    5.8693881510035890E+00    1.0386356209684690E+01    4.8521359969716853E+00
Au    8.9059391272971258E+00    1.0446505586438157E+01    4.8840024903691317E+00
Au    1.1942490367518536E+01    1.0386356323107110E+01    4.8521360396002908E+00
Au    1.4872238516900216E+01    1.0281948258785702E+01    4.8554376273657827E+00
Au    1.4713574611355158E+00    1.2830287529824371E+01    4.8591459394535681E+00
Au    4.4108340365102237E+00    1.2875459615642573E+01    4.8681288034982702E+00
Au    7.3962091044567222E+00    1.2921153607426046E+01    4.8552260701130470E+00
Au    1.0415669301588096E+01    1.2921153600840821E+01    4.8552260527120668E+00
Au    1.3401044414862612E+01    1.2875459685903698E+01    4.8681288169473209E+00
Au    1.6340520943682911E+01    1.2830287537754623E+01    4.8591459461640696E+00
Au    7.4199240568538096E+00    6.0357312527315221E+00    6.9134667432436734E+00
Au    1.0391955435076982E+01    6.0357314883572322E+00    6.9134661580210608E+00
Au    8.9059397158152152E+00    8.5770820475721266E+00    6.9144369234958498E+00
Au    8.9059403731612825E+00    6.8398854335136159E+00    9.0779887563185380E+00
Au    8.9058988248107980E+00    6.2241529577239376E+00    1.1623228877531769E+01
Au    8.9060266848725966E+00    7.7751129427476187E+00    1.3746643024081944E+01
Au    8.9058439749523934E+00    7.3142647242879022E+00    1.6328799021444716E+01
Au    8.9059996877364842E+00    5.9086137238628522E+00    1.8536967870920051E+01
Au    8.9059215329289518E+00    7.2576282652968276E+00    2.0779985913382752E+01
Au    8.9059393073585600E+00    6.8541112269598266E+00    2.3378710975883465E+01
Au    8.9059392081217190E+00    5.1432418730435101E+00    2.5582563384279116E+01
Au    7.4388377070787781E+00    7.6884280276083006E+00    2.5563115619908245E+01
Au    1.0373041063985474E+01    7.6884281305900917E+00    2.5563116167735505E+01
Au   -2.0596183136660431E-08    1.7120537264589510E+00    2.7719678386280762E+01
Au    2.9437382231424949E+00    1.7100742221392331E+00    2.7710973608400611E+01
Au    5.8934654326982292E+00    1.6719898189584050E+00    2.7711268225462995E+01
Au    8.9059391840657351E+00    1.6694543393193142E+00    2.7691130713810114E+01
Au    1.1918412948993812E+01    1.6719898078857154E+00    2.7711268245933294E+01
Au    1.4868140218593616E+01    1.7100741505087154E+00    2.7710973617480629E+01
Au    1.4696053970350340E+00    4.2835897027328578E+00    2.7712631238290619E+01
Au    4.4008871457019296E+00    4.2639206117217876E+00    2.7719195448280352E+01
Au    7.3507515606290950E+00    4.1776736191642065E+00    2.7683529868497249E+01
Au    1.0461126726457456E+01    4.1776736926072662E+00    2.7683529664548022E+01
Au    1.3410991305432990E+01    4.2639204838554443E+00    2.7719195393031075E+01
Au    1.6342273024687213E+01    4.2835896838146201E+00    2.7712631326745054E+01
Au    2.1231685706892749E-08    6.8699830010071699E+00    2.7707343289468916E+01
Au    2.9112694147736566E+00    6.8604186048314872E+00    2.7706201993476729E+01
Au    5.8091383057425130E+00    6.8707553726574533E+00    2.7675113084280991E+01
Au    8.9059391287399059E+00    6.8676233503989481E+00    2.7888483236737869E+01
Au    1.2002740248003651E+01    6.8707551245285137E+00    2.7675113267890232E+01
Au    1.4900609059110524E+01    6.8604186170535248E+00    2.7706202011592335E+01
Au    1.4649150366641646E+00    9.4463876357396614E+00    2.7703351301882492E+01
Au    4.3954469282283348E+00    9.4651159284508459E+00    2.7679783562172048E+01
Au    7.3432833963332218E+00    9.5372478429701619E+00    2.7661718981620727E+01
Au    1.0468594913057515E+01    9.5372482050392176E+00    2.7661719289881955E+01
Au    1.3416431407866138E+01    9.4651159134023501E+00    2.7679783633989345E+01
Au    1.6346963365552220E+01    9.4463876617485010E+00    2.7703351348264512E+01
Au    1.2250500880130853E-09    1.2013190249041402E+01    2.7709586102707448E+01
Au    2.9485952338250629E+00    1.2018300963055525E+01    2.7705805185502875E+01
Au    5.9054018519418294E+00    1.2053345048703919E+01    2.7705017855620259E+01
Au    8.9059391141788282E+00    1.2043259573200034E+01    2.7712522513848810E+01
Au    1.1906476587379101E+01    1.2053345125770321E+01    2.7705017853000125E+01
Au    1.4863283177897159E+01    1.2018300956900676E+01    2.7705805202260663E+01
Au    1.4745704746487207E+00    1.4571197318004126E+01    2.7717756047761039E+01
Au    4.4268048067650838E+00    1.4574843833553640E+01    2.7710342696766034E+01
Au    7.4121010595362353E+00    1.4573953678793647E+01    2.7709479701965048E+01
Au    1.0399777332556821E+01    1.4573953667195095E+01    2.7709479729422775E+01
Au    1.3385073610961625E+01    1.4574843845536471E+01    2.7710342701968653E+01
Au    1.6337307910310098E+01    1.4571197342183513E+01    2.7717756008088468E+01
Au   -6.4234706843847832E-09    4.9569721213754353E-03    3.0165296837262332E+01
Au    2.9675861452155492E+00    7.3367629844648310E-03    3.0162418258090071E+01
Au    5.9400222537683369E+00   -6.3090483969631701E-03    3.0162957414582046E+01
Au    8.9059392093673289E+00    5.7482985434081429E-03    3.0152445272231969E+01
Au    1.1871856139544732E+01   -6.3090604207957082E-03    3.0162957437450856E+01
Au    1.4844292242917989E+01    7.3367550622422647E-03    3.0162418277814037E+01
Au    1.4855995553152195E+00    2.5806961055967976E+00    3.0160772934674235E+01
Au    4.4564110798128205E+00    2.5723575636353333E+00    3.0161194121511610E+01
Au    7.4157706460860515E+00    2.5705192275409599E+00    3.0150365105574828E+01
Au    1.0396107757027512E+01    2.5705192775614734E+00    3.0150365002596800E+01
Au    1.3355467307226876E+01    2.5723575465120203E+00    3.0161194133777819E+01
Au    1.6326278852044183E+01    2.5806960797361698E+00    3.0160772958652309E+01
Au    6.8849438238738225E-09    5.1528152938044984E+00    3.0160245345111054E+01
Au    2.9677714605878900E+00    5.1507766097050371E+00    3.0160804140429683E+01
Au    5.9408876226432650E+00    5.1511342078908813E+00    3.0112449894816280E+01
Au    8.9059391927023821E+00    5.1268798082158833E+00    3.0154075831342233E+01
Au    1.1870990749656420E+01    5.1511341244687294E+00    3.0112449844935263E+01
Au    1.4844106915212793E+01    5.1507766223184541E+00    3.0160804170156730E+01
Au    1.4837701866606110E+00    7.7250419405002573E+00    3.0160135234442155E+01
Au    4.4495217733905692E+00    7.7147037949128361E+00    3.0148954286900501E+01
Au    7.4061007162601786E+00    7.7231528681229005E+00    3.0154841156628077E+01
Au    1.0405777689910854E+01    7.7231528683597546E+00    3.0154841155351718E+01
Au    1.3362356604143619E+01    7.7147037877514268E+00    3.0148954259711001E+01
Au    1.6328108233056611E+01    7.7250419292795645E+00    3.0160135243972928E+01
Au    1.2389033476726870E-08    1.0292551864574921E+01    3.0158870052331089E+01
Au    2.9771367049442667E+00    1.0283384198858311E+01    3.0153823286114971E+01
Au    5.9385415940087976E+00    1.0290703356346041E+01    3.0146481493990020E+01
Au    8.9059391189085026E+00    1.0268902331558484E+01    3.0103520056997375E+01
Au    1.1873336826911164E+01    1.0290703362851868E+01    3.0146481532045385E+01
Au    1.4834741719838480E+01    1.0283384213562357E+01    3.0153823330499460E+01
Au    1.4849291263169089E+00    1.2858077805314915E+01    3.0162780407356379E+01
Au    4.4488453676564621E+00    1.2855392729926988E+01    3.0161139418026387E+01
Au    7.4223385917870495E+00    1.2847001001927460E+01    3.0158496965175775E+01
Au    1.0389539786067582E+01    1.2847000979456542E+01    3.0158496956364466E+01
Au    1.3363033030729733E+01    1.2855392733174488E+01    3.0161139440363613E+01
Au    1.6326949279038054E+01    1.2858077797887905E+01    3.0162780400985895E+01
     &END COORD
     &KIND Au
       BASIS_SET TZVP-MOLOPT-SR-GTH-q11
       ELEMENT Au
       POTENTIAL GTH-PBE-q11
       &POTENTIAL
1 0 10
0.5900000000000000E+00 1  0.1051717881000000E+02
3
0.5438473300000000E+00 2  0.5786811030000000E+01 -0.2250679660000000E+01
0.2905614950000000E+01
0.6091729800000000E+00 2  0.4284048730000000E+01 -0.4071285200000000E+01
0.4817209620000000E+01
0.4373092200000000E+00 2 -0.7403281240000000E+01  0.3010193070000000E+01
-0.3413238110000000E+01
       &END POTENTIAL
     &END KIND
     &TOPOLOGY
       COORD_FILE_NAME junction_65.xyz
       COORD_FILE_FORMAT  XYZ
       NUMBER_OF_ATOMS  193
       MULTIPLE_UNIT_CELL  1 1 1
     &END TOPOLOGY
   &END SUBSYS
   &PRINT
     &TOTAL_NUMBERS  ON
     &END TOTAL_NUMBERS
   &END PRINT
 &END FORCE_EVAL
