 # Version information for this restart file 
 # current date 2022-05-08 22:37:31.287
 # current working dir /rds/general/user/jj1921/home/junction/ortho/cell_65
 # Program compiled at                              Thu 12 Jul 13:52:12 BST 2018
 # Program compiled on                                      build-2.hpc.ic.ac.uk
 # Program compiled for                                       Linux-x86-64-intel
 # Source code revision number                                         svn:18464
 &GLOBAL
   PRINT_LEVEL  MEDIUM
   PROJECT_NAME Au_junction
   RUN_TYPE  CELL_OPT
 &END GLOBAL
 &MOTION
   &CELL_OPT
     OPTIMIZER  BFGS
     STEP_START_VAL  198
     TYPE  DIRECT_CELL_OPT
     KEEP_ANGLES  T
     KEEP_SYMMETRY  T
     CONSTRAINT  XY
   &END CELL_OPT
   &CONSTRAINT
     &FIXED_ATOMS
       COMPONENTS_TO_FIX  XYZ
       LIST  1..36
     &END FIXED_ATOMS
   &END CONSTRAINT
   &PRINT
     &TRAJECTORY  SILENT
       &EACH
         CELL_OPT  1
       &END EACH
     &END TRAJECTORY
   &END PRINT
 &END MOTION
 &FORCE_EVAL
   METHOD  QS
   STRESS_TENSOR  ANALYTICAL
   &DFT
     BASIS_SET_FILE_NAME /rds/general/user/jj1921/home/BASIS_COM_MOLOPT_GTH
     POTENTIAL_FILE_NAME /rds/general/user/jj1921/home/GTH_POTENTIALS
     &SCF
       MAX_SCF  500
       EPS_SCF     9.9999999999999995E-08
       CHOLESKY  INVERSE
       SCF_GUESS  ATOMIC
       ADDED_MOS  20
       &DIAGONALIZATION  T
         ALGORITHM  STANDARD
       &END DIAGONALIZATION
       &SMEAR  T
         METHOD  FERMI_DIRAC
         ELECTRONIC_TEMPERATURE     3.0000000000000000E+02
       &END SMEAR
       &MIXING  T
         METHOD  BROYDEN_MIXING
         ALPHA     4.0000000000000002E-01
         BETA     5.0000000000000000E-01
         NBUFFER  8
       &END MIXING
     &END SCF
     &QS
       EPS_DEFAULT     1.0000000000000000E-14
       METHOD  GPW
     &END QS
     &MGRID
       NGRIDS  4
       CUTOFF     5.0000000000000000E+02
       REL_CUTOFF     4.0000000000000000E+01
     &END MGRID
     &XC
       DENSITY_CUTOFF     1.0000000000000000E-10
       GRADIENT_CUTOFF     1.0000000000000000E-10
       TAU_CUTOFF     1.0000000000000000E-10
       &XC_FUNCTIONAL  NO_SHORTCUT
         &PBE  T
         &END PBE
       &END XC_FUNCTIONAL
     &END XC
     &KPOINTS
       SCHEME MONKHORST-PACK 4 4 1
       FULL_GRID  T
     &END KPOINTS
   &END DFT
   &SUBSYS
     &CELL
       A     1.7811878396732908E+01    0.0000000000000000E+00    0.0000000000000000E+00
       B     0.0000000000000000E+00    1.5425539180689926E+01    0.0000000000000000E+00
       C     0.0000000000000000E+00    0.0000000000000000E+00    3.2198322198144872E+01
       PERIODIC  XYZ
       MULTIPLE_UNIT_CELL  1 1 1
       SYMMETRY  ORTHORHOMBIC
     &END CELL
     &COORD
Au    1.4843231999999993E+00    8.5697440000000025E-01    0.0000000000000000E+00
Au    4.4529695999999976E+00    8.5697440000000025E-01    0.0000000000000000E+00
Au    7.4216159999999967E+00    8.5697440000000025E-01    0.0000000000000000E+00
Au    1.0390262400000001E+01    8.5697440000000025E-01    0.0000000000000000E+00
Au    1.3358908799999995E+01    8.5697440000000025E-01    0.0000000000000000E+00
Au    1.6327555199999992E+01    8.5697440000000025E-01    0.0000000000000000E+00
Au    0.0000000000000000E+00    3.4278976000000010E+00    0.0000000000000000E+00
Au    2.9686463999999986E+00    3.4278976000000010E+00    0.0000000000000000E+00
Au    5.9372927999999972E+00    3.4278976000000010E+00    0.0000000000000000E+00
Au    8.9059391999999953E+00    3.4278976000000010E+00    0.0000000000000000E+00
Au    1.1874585599999994E+01    3.4278976000000010E+00    0.0000000000000000E+00
Au    1.4843231999999993E+01    3.4278976000000010E+00    0.0000000000000000E+00
Au    1.4843231999999993E+00    5.9988207899999999E+00    0.0000000000000000E+00
Au    4.4529695999999976E+00    5.9988207899999999E+00    0.0000000000000000E+00
Au    7.4216159999999967E+00    5.9988207899999999E+00    0.0000000000000000E+00
Au    1.0390262400000001E+01    5.9988207899999999E+00    0.0000000000000000E+00
Au    1.3358908799999995E+01    5.9988207899999999E+00    0.0000000000000000E+00
Au    1.6327555199999992E+01    5.9988207899999999E+00    0.0000000000000000E+00
Au    0.0000000000000000E+00    8.5697439900000028E+00    0.0000000000000000E+00
Au    2.9686463999999986E+00    8.5697439900000028E+00    0.0000000000000000E+00
Au    5.9372927999999972E+00    8.5697439900000028E+00    0.0000000000000000E+00
Au    8.9059391999999953E+00    8.5697439900000028E+00    0.0000000000000000E+00
Au    1.1874585599999994E+01    8.5697439900000028E+00    0.0000000000000000E+00
Au    1.4843231999999993E+01    8.5697439900000028E+00    0.0000000000000000E+00
Au    1.4843231999999993E+00    1.1140667190000002E+01    0.0000000000000000E+00
Au    4.4529695999999976E+00    1.1140667190000002E+01    0.0000000000000000E+00
Au    7.4216159999999967E+00    1.1140667190000002E+01    0.0000000000000000E+00
Au    1.0390262400000001E+01    1.1140667190000002E+01    0.0000000000000000E+00
Au    1.3358908799999995E+01    1.1140667190000002E+01    0.0000000000000000E+00
Au    1.6327555199999992E+01    1.1140667190000002E+01    0.0000000000000000E+00
Au    0.0000000000000000E+00    1.3711590380000011E+01    0.0000000000000000E+00
Au    2.9686463999999986E+00    1.3711590380000011E+01    0.0000000000000000E+00
Au    5.9372927999999972E+00    1.3711590380000011E+01    0.0000000000000000E+00
Au    8.9059391999999953E+00    1.3711590380000011E+01    0.0000000000000000E+00
Au    1.1874585599999994E+01    1.3711590380000011E+01    0.0000000000000000E+00
Au    1.4843231999999993E+01    1.3711590380000011E+01    0.0000000000000000E+00
Au   -2.4235227248641248E-06    1.6917245994568768E+00    2.4111068938413101E+00
Au    2.9586686670096554E+00    1.6959643895769350E+00    2.4068657976446137E+00
Au    5.9214727135827623E+00    1.7128614237416664E+00    2.4053641445487890E+00
Au    8.9059410293694938E+00    1.7337228353571796E+00    2.4166774838960428E+00
Au    1.1890405989404739E+01    1.7128624653323752E+00    2.4053639364183548E+00
Au    1.4853203913607116E+01    1.6959703703043663E+00    2.4068674071472800E+00
Au    1.4789757400473018E+00    4.2598425000191211E+00    2.4049532804850520E+00
Au    4.4484704372044899E+00    4.2751400102409827E+00    2.4281369881817025E+00
Au    7.4079147950876694E+00    4.2870234621205308E+00    2.4234987236753680E+00
Au    1.0403964445660742E+01    4.2870274701846300E+00    2.4235120556191569E+00
Au    1.3363394700610707E+01    4.2751493837630967E+00    2.4281432365068740E+00
Au    1.6332895248762686E+01    4.2598451562570405E+00    2.4049539205743189E+00
Au    1.0518207563095890E-06    6.8319211771161390E+00    2.4073913609900810E+00
Au    2.9590810903152875E+00    6.8337244692273549E+00    2.4057391824217662E+00
Au    5.9295985982318005E+00    6.8391115570080681E+00    2.4187884872831460E+00
Au    8.9059403066288976E+00    6.8530550870620779E+00    2.4751648400109150E+00
Au    1.1882273647162140E+01    6.8391190892159752E+00    2.4188096181874603E+00
Au    1.4852797323340431E+01    6.8337236825611978E+00    2.4057390902599272E+00
Au    1.4872802920371806E+00    9.4058002447072990E+00    2.4098344681917347E+00
Au    4.4598413373448551E+00    9.4110667634656817E+00    2.4174064632305039E+00
Au    7.4274360004101538E+00    9.4426466478796502E+00    2.4134542409257169E+00
Au    1.0384450716380469E+01    9.4426379874442432E+00    2.4134625713224449E+00
Au    1.3352039949438522E+01    9.4110683525534320E+00    2.4174102811780109E+00
Au    1.6324598212063226E+01    9.4058009553857840E+00    2.4098316230958607E+00
Au   -1.4140393223798236E-06    1.1975152701807751E+01    2.4103517442396969E+00
Au    2.9666002843308501E+00    1.1980433606550497E+01    2.4100718379518749E+00
Au    5.9353488066382765E+00    1.2007635348933473E+01    2.4057219401483261E+00
Au    8.9059432435512704E+00    1.2017265284916144E+01    2.4195930894850228E+00
Au    1.1876530937553813E+01    1.2007634762634583E+01    2.4057218396986779E+00
Au    1.4845279240551708E+01    1.1980437205661012E+01    2.4100681835095821E+00
Au    1.4773614817893228E+00    1.4547788770178352E+01    2.4098599204678077E+00
Au    4.4435476988146654E+00    1.4561105682347680E+01    2.4063264551099364E+00
Au    7.4182787780519295E+00    1.4587673419259017E+01    2.4054957407124751E+00
Au    1.0393600011178210E+01    1.4587675705646610E+01    2.4054952757007544E+00
Au    1.3368332993946007E+01    1.4561107183538200E+01    2.4063236716865841E+00
Au    1.6334514621754955E+01    1.4547791172865915E+01    2.4098578888828506E+00
Au   -7.0139805247460717E-07   -3.5716173388071953E-02    4.8741077650975209E+00
Au    2.9337113838122759E+00   -3.0441692871633810E-02    4.8675500875626287E+00
Au    5.8909338224530181E+00   -1.9177319641977789E-02    4.8657275897364194E+00
Au    8.9059410477754692E+00   -3.9692964112006922E-03    4.8553623251757321E+00
Au    1.1920949744111891E+01   -1.9171534878156208E-02    4.8657244819154446E+00
Au    1.4878163425329237E+01   -3.0432006254218470E-02    4.8675509307241906E+00
Au    1.4631927111945562E+00    2.5278380541300338E+00    4.8736288712743274E+00
Au    4.3922964949745369E+00    2.5122644561466720E+00    4.8695092819709087E+00
Au    7.3580268233360080E+00    2.4778248205985101E+00    4.8551992237211152E+00
Au    1.0453850001160747E+01    2.4778316014789405E+00    4.8552040257814575E+00
Au    1.3419572104392751E+01    2.5122800215344516E+00    4.8695179573238061E+00
Au    1.6348679557628106E+01    2.5278406801339499E+00    4.8736235361940468E+00
Au   -6.0415472197755340E-06    5.1015602751587776E+00    4.8663723118774032E+00
Au    2.9047224807890006E+00    5.0994380023767514E+00    4.8695292732254867E+00
Au    5.8118081408407294E+00    5.0600278652175890E+00    4.9139595139881749E+00
Au    8.9059273793761289E+00    4.9210023311638595E+00    4.7987219075300542E+00
Au    1.2000050178107255E+01    5.0600370132336456E+00    4.9139996970036526E+00
Au    1.4907137744097252E+01    5.0994421503869027E+00    4.8695339741453747E+00
Au    1.4563994168629362E+00    7.6860645626951802E+00    4.8671754596172869E+00
Au    4.3466333718776555E+00    7.6908606204714580E+00    4.8571148738413630E+00
Au    7.2350932529845151E+00    7.8281381066067519E+00    4.7764281872071592E+00
Au    1.0576775585865830E+01    7.8281480350189891E+00    4.7764630505334891E+00
Au    1.3465249971197499E+01    7.6908690565327857E+00    4.8571177212374401E+00
Au    1.6355484542532256E+01    7.6860633520099126E+00    4.8671671196975206E+00
Au    6.8979627479324676E-07    1.0254959317707430E+01    4.8570127702609618E+00
Au    2.9396047420081572E+00    1.0272607495350043E+01    4.8561065609954133E+00
Au    5.8707489878955048E+00    1.0375605266772922E+01    4.8504996397440099E+00
Au    8.9059380271852415E+00    1.0441887574933757E+01    4.8734603008799224E+00
Au    1.1941145974539358E+01    1.0375612248111693E+01    4.8505010401379476E+00
Au    1.4872284301575748E+01    1.0272613997686395E+01    4.8561104068543726E+00
Au    1.4700024909462746E+00    1.2826571861467137E+01    4.8622027492402378E+00
Au    4.4085995014649946E+00    1.2868246111555674E+01    4.8676594955780592E+00
Au    7.3899695326375241E+00    1.2918224118038262E+01    4.8566481787251936E+00
Au    1.0421916562735079E+01    1.2918226481152704E+01    4.8566446819978486E+00
Au    1.3403286425382348E+01    1.2868256272112959E+01    4.8676588212489804E+00
Au    1.6341874169544212E+01    1.2826576984819578E+01    4.8622028059082645E+00
Au    7.4258595906730394E+00    6.0310587154206283E+00    6.9332384365278212E+00
Au    1.0385906116372089E+01    6.0311269866463606E+00    6.9332808804196935E+00
Au    8.9059305439519232E+00    8.5946160652110066E+00    6.9212793988145167E+00
Au    8.9056663338409656E+00    6.8668329906427639E+00    9.0948401618932149E+00
Au    8.9034058524784960E+00    6.7762209737003198E+00    1.1713882794665052E+01
Au    8.9109282922131978E+00    8.3882846076586297E+00    1.3774447279490399E+01
Au    8.9019895913935247E+00    7.0567392565342049E+00    1.6027779209398464E+01
Au    8.9101714647724037E+00    5.6510041374409745E+00    1.8232195703949586E+01
Au    8.9038530608916062E+00    7.1368224156634854E+00    2.0381986720544116E+01
Au    8.9058195085444218E+00    6.8947651721268661E+00    2.3001107648056209E+01
Au    8.9059400703704448E+00    5.1604269341145397E+00    2.5192269547301620E+01
Au    7.4360897769208778E+00    7.7005987640022822E+00    2.5191887798076817E+01
Au    1.0375774449593374E+01    7.7005677569750892E+00    2.5191900533038279E+01
Au   -1.4071454802276531E-06    1.7168323819374036E+00    2.7340413078664607E+01
Au    2.9441526538629281E+00    1.7127551815447608E+00    2.7338033934468072E+01
Au    5.8911042917918524E+00    1.6775063891943345E+00    2.7340113500939999E+01
Au    8.9059367580970026E+00    1.6726518427288171E+00    2.7326268743450949E+01
Au    1.1920773020144257E+01    1.6775031017842659E+00    2.7340113002531840E+01
Au    1.4867731332811667E+01    1.7127440719916420E+00    2.7338035834426101E+01
Au    1.4718389949840420E+00    4.2840500216746795E+00    2.7342032406548739E+01
Au    4.4066030251848058E+00    4.2685556128812747E+00    2.7348288125820012E+01
Au    7.3586199179992491E+00    4.1818744147870897E+00    2.7303539289092107E+01
Au    1.0453252626442637E+01    4.1818814097012433E+00    2.7303518164832688E+01
Au    1.3405280982444578E+01    4.2685400831526872E+00    2.7348276420736077E+01
Au    1.6340041740433001E+01    4.2840490930576571E+00    2.7342042726653752E+01
Au    1.3768097586948621E-06    6.8680653271929843E+00    2.7340434725390590E+01
Au    2.9119733756967801E+00    6.8607499566762433E+00    2.7339405262159730E+01
Au    5.8103519085880135E+00    6.8735537097576227E+00    2.7301158200221582E+01
Au    8.9059272156887364E+00    6.8634006473575564E+00    2.7509708370475739E+01
Au    1.2001529476426517E+01    6.8735282599059131E+00    2.7301157551384684E+01
Au    1.4899905702949459E+01    6.8607499775727154E+00    2.7339405843751884E+01
Au    1.4663445533382076E+00    9.4451251402146124E+00    2.7337232172700588E+01
Au    4.3976122526052199E+00    9.4639054845274799E+00    2.7314785638987086E+01
Au    7.3444195925575020E+00    9.5360222909282317E+00    2.7295601873401168E+01
Au    1.0467442535253483E+01    9.5360484576553937E+00    2.7295604059534835E+01
Au    1.3414253400846354E+01    9.4639017058228170E+00    2.7314794984309131E+01
Au    1.6345531235864769E+01    9.4451295861617410E+00    2.7337238975774294E+01
Au   -6.8494598727898613E-07    1.2011959274024521E+01    2.7335007137386427E+01
Au    2.9477095184773590E+00    1.2015463093233915E+01    2.7335330607399122E+01
Au    5.9044470862531826E+00    1.2054423525254846E+01    2.7340269921162502E+01
Au    8.9059301983610180E+00    1.2045256686539641E+01    2.7349391098984796E+01
Au    1.1907430021719636E+01    1.2054424073950555E+01    2.7340266395007294E+01
Au    1.4864168204859942E+01    1.2015463074085785E+01    2.7335330382622772E+01
Au    1.4742204368088019E+00    1.4573678652433232E+01    2.7340665004107510E+01
Au    4.4249526208926238E+00    1.4575842733802823E+01    2.7337820519031457E+01
Au    7.4098996811933553E+00    1.4578883243784217E+01    2.7340608441656066E+01
Au    1.0401977061806239E+01    1.4578880702061278E+01    2.7340613290955574E+01
Au    1.3386925531413722E+01    1.4575838823766327E+01    2.7337823140129753E+01
Au    1.6337655502296659E+01    1.4573680749860271E+01    2.7340659430923338E+01
Au   -1.4998203050159696E-06    6.2428025336014464E-03    2.9790190896668879E+01
Au    2.9662778921016821E+00    8.3738276717531500E-03    2.9789529201544578E+01
Au    5.9362779787002546E+00   -4.3524245371215934E-03    2.9791657733630750E+01
Au    8.9059399259442511E+00    9.5157253586204450E-03    2.9785790207202972E+01
Au    1.1875599653694405E+01   -4.3533508403075117E-03    2.9791660403656874E+01
Au    1.4845599879639849E+01    8.3694864070055427E-03    2.9789532194256502E+01
Au    1.4855439627633924E+00    2.5777815307119964E+00    2.9789010310129878E+01
Au    4.4531205559463745E+00    2.5756698147131925E+00    2.9791616793901731E+01
Au    7.4156273548163831E+00    2.5755885260158360E+00    2.9777450724673070E+01
Au    1.0396253006975456E+01    2.5755917749164556E+00    2.9777439221717213E+01
Au    1.3358757362643344E+01    2.5756682298701357E+00    2.9791615553970793E+01
Au    1.6326335089358807E+01    2.5777772545227688E+00    2.9789014182455766E+01
Au    2.1288106967258819E-06    5.1525837968982460E+00    2.9791249409516332E+01
Au    2.9677787079088720E+00    5.1493886065406862E+00    2.9792193288763684E+01
Au    5.9426085540095013E+00    5.1511892240898529E+00    2.9741679710430322E+01
Au    8.9059403062435525E+00    5.1226743336592735E+00    2.9785910223900952E+01
Au    1.1869267475824577E+01    5.1511810044506188E+00    2.9741672374965074E+01
Au    1.4844096895137577E+01    5.1493882084546856E+00    2.9792193580042710E+01
Au    1.4813811239709422E+00    7.7242446106837832E+00    2.9793563090448433E+01
Au    4.4513698687608088E+00    7.7149368073039701E+00    2.9779785130347669E+01
Au    7.4044809394890461E+00    7.7243594871668027E+00    2.9783733963896868E+01
Au    1.0407399670417899E+01    7.7243579920280379E+00    2.9783728340396188E+01
Au    1.3360502938712584E+01    7.7149346095696201E+00    2.9779776330040196E+01
Au    1.6330495705515720E+01    7.7242418161092248E+00    2.9793562846563077E+01
Au    5.1220357707708169E-07    1.0297265926608617E+01    2.9791177525289491E+01
Au    2.9762089601149864E+00    1.0284379770325060E+01    2.9784650565395161E+01
Au    5.9394357042560353E+00    1.0289825047001703E+01    2.9777577517370318E+01
Au    8.9059325264881917E+00    1.0271969949675459E+01    2.9738939257052955E+01
Au    1.1872439562933899E+01    1.0289821126705426E+01    2.9777573991620933E+01
Au    1.4835670967345012E+01    1.0284381540873841E+01    2.9784655287750688E+01
Au    1.4815016517449116E+00    1.2860696285325538E+01    2.9789880118853645E+01
Au    4.4459580576366848E+00    1.2857291029791604E+01    2.9791333266536558E+01
Au    7.4211984994663913E+00    1.2850940516389773E+01    2.9791466644581956E+01
Au    1.0390678191942568E+01    1.2850937203915754E+01    2.9791466040743714E+01
Au    1.3365917752688329E+01    1.2857288679094507E+01    2.9791334561277861E+01
Au    1.6330375875369597E+01    1.2860694943117201E+01    2.9789880875896515E+01
     &END COORD
     &KIND Au
       BASIS_SET TZVP-MOLOPT-SR-GTH-q11
       ELEMENT Au
       POTENTIAL GTH-PBE-q11
       &POTENTIAL
1 0 10
0.5900000000000000E+00 1  0.1051717881000000E+02
3
0.5438473300000000E+00 2  0.5786811030000000E+01 -0.2250679660000000E+01
0.2905614950000000E+01
0.6091729800000000E+00 2  0.4284048730000000E+01 -0.4071285200000000E+01
0.4817209620000000E+01
0.4373092200000000E+00 2 -0.7403281240000000E+01  0.3010193070000000E+01
-0.3413238110000000E+01
       &END POTENTIAL
     &END KIND
     &TOPOLOGY
       COORD_FILE_NAME junction_65.xyz
       COORD_FILE_FORMAT  XYZ
       NUMBER_OF_ATOMS  193
       MULTIPLE_UNIT_CELL  1 1 1
     &END TOPOLOGY
   &END SUBSYS
   &PRINT
     &TOTAL_NUMBERS  ON
     &END TOTAL_NUMBERS
   &END PRINT
 &END FORCE_EVAL
