 # Version information for this restart file 
 # current date 2022-05-04 08:06:44.910
 # current working dir /rds/general/user/jj1921/home/junction/ortho/cell_65
 # Program compiled at                              Thu 12 Jul 13:52:12 BST 2018
 # Program compiled on                                      build-2.hpc.ic.ac.uk
 # Program compiled for                                       Linux-x86-64-intel
 # Source code revision number                                         svn:18464
 &GLOBAL
   PRINT_LEVEL  MEDIUM
   PROJECT_NAME Au_junction
   RUN_TYPE  CELL_OPT
 &END GLOBAL
 &MOTION
   &CELL_OPT
     OPTIMIZER  BFGS
     STEP_START_VAL  133
     TYPE  DIRECT_CELL_OPT
     KEEP_ANGLES  T
     KEEP_SYMMETRY  T
     CONSTRAINT  XY
   &END CELL_OPT
   &CONSTRAINT
     &FIXED_ATOMS
       COMPONENTS_TO_FIX  XYZ
       LIST  1..36
     &END FIXED_ATOMS
   &END CONSTRAINT
   &PRINT
     &TRAJECTORY  SILENT
       &EACH
         CELL_OPT  1
       &END EACH
     &END TRAJECTORY
   &END PRINT
 &END MOTION
 &FORCE_EVAL
   METHOD  QS
   STRESS_TENSOR  ANALYTICAL
   &DFT
     BASIS_SET_FILE_NAME /rds/general/user/jj1921/home/BASIS_COM_MOLOPT_GTH
     POTENTIAL_FILE_NAME /rds/general/user/jj1921/home/GTH_POTENTIALS
     &SCF
       MAX_SCF  500
       EPS_SCF     9.9999999999999995E-08
       CHOLESKY  INVERSE
       SCF_GUESS  ATOMIC
       ADDED_MOS  20
       &DIAGONALIZATION  T
         ALGORITHM  STANDARD
       &END DIAGONALIZATION
       &SMEAR  T
         METHOD  FERMI_DIRAC
         ELECTRONIC_TEMPERATURE     3.0000000000000000E+02
       &END SMEAR
       &MIXING  T
         METHOD  BROYDEN_MIXING
         ALPHA     4.0000000000000002E-01
         BETA     5.0000000000000000E-01
         NBUFFER  8
       &END MIXING
     &END SCF
     &QS
       EPS_DEFAULT     1.0000000000000000E-14
       METHOD  GPW
     &END QS
     &MGRID
       NGRIDS  4
       CUTOFF     5.0000000000000000E+02
       REL_CUTOFF     4.0000000000000000E+01
     &END MGRID
     &XC
       DENSITY_CUTOFF     1.0000000000000000E-10
       GRADIENT_CUTOFF     1.0000000000000000E-10
       TAU_CUTOFF     1.0000000000000000E-10
       &XC_FUNCTIONAL  NO_SHORTCUT
         &PBE  T
         &END PBE
       &END XC_FUNCTIONAL
     &END XC
     &KPOINTS
       SCHEME MONKHORST-PACK 4 4 1
       FULL_GRID  T
     &END KPOINTS
   &END DFT
   &SUBSYS
     &CELL
       A     1.7811878396732904E+01    0.0000000000000000E+00    0.0000000000000000E+00
       B     0.0000000000000000E+00    1.5425539180689926E+01    0.0000000000000000E+00
       C     0.0000000000000000E+00    0.0000000000000000E+00    3.2408500778754757E+01
       PERIODIC  XYZ
       MULTIPLE_UNIT_CELL  1 1 1
       SYMMETRY  ORTHORHOMBIC
     &END CELL
     &COORD
Au    1.4843231999999993E+00    8.5697439999999980E-01    0.0000000000000000E+00
Au    4.4529695999999976E+00    8.5697439999999980E-01    0.0000000000000000E+00
Au    7.4216159999999967E+00    8.5697439999999980E-01    0.0000000000000000E+00
Au    1.0390262399999997E+01    8.5697439999999980E-01    0.0000000000000000E+00
Au    1.3358908799999995E+01    8.5697439999999980E-01    0.0000000000000000E+00
Au    1.6327555199999992E+01    8.5697439999999980E-01    0.0000000000000000E+00
Au    0.0000000000000000E+00    3.4278975999999992E+00    0.0000000000000000E+00
Au    2.9686463999999986E+00    3.4278975999999992E+00    0.0000000000000000E+00
Au    5.9372927999999972E+00    3.4278975999999992E+00    0.0000000000000000E+00
Au    8.9059391999999953E+00    3.4278975999999992E+00    0.0000000000000000E+00
Au    1.1874585599999994E+01    3.4278975999999992E+00    0.0000000000000000E+00
Au    1.4843231999999993E+01    3.4278975999999992E+00    0.0000000000000000E+00
Au    1.4843231999999993E+00    5.9988207899999981E+00    0.0000000000000000E+00
Au    4.4529695999999976E+00    5.9988207899999981E+00    0.0000000000000000E+00
Au    7.4216159999999967E+00    5.9988207899999981E+00    0.0000000000000000E+00
Au    1.0390262399999997E+01    5.9988207899999981E+00    0.0000000000000000E+00
Au    1.3358908799999995E+01    5.9988207899999981E+00    0.0000000000000000E+00
Au    1.6327555199999992E+01    5.9988207899999981E+00    0.0000000000000000E+00
Au    0.0000000000000000E+00    8.5697439899999992E+00    0.0000000000000000E+00
Au    2.9686463999999986E+00    8.5697439899999992E+00    0.0000000000000000E+00
Au    5.9372927999999972E+00    8.5697439899999992E+00    0.0000000000000000E+00
Au    8.9059391999999953E+00    8.5697439899999992E+00    0.0000000000000000E+00
Au    1.1874585599999994E+01    8.5697439899999992E+00    0.0000000000000000E+00
Au    1.4843231999999993E+01    8.5697439899999992E+00    0.0000000000000000E+00
Au    1.4843231999999993E+00    1.1140667189999997E+01    0.0000000000000000E+00
Au    4.4529695999999976E+00    1.1140667189999997E+01    0.0000000000000000E+00
Au    7.4216159999999967E+00    1.1140667189999997E+01    0.0000000000000000E+00
Au    1.0390262399999997E+01    1.1140667189999997E+01    0.0000000000000000E+00
Au    1.3358908799999995E+01    1.1140667189999997E+01    0.0000000000000000E+00
Au    1.6327555199999992E+01    1.1140667189999997E+01    0.0000000000000000E+00
Au    0.0000000000000000E+00    1.3711590380000002E+01    0.0000000000000000E+00
Au    2.9686463999999986E+00    1.3711590380000002E+01    0.0000000000000000E+00
Au    5.9372927999999972E+00    1.3711590380000002E+01    0.0000000000000000E+00
Au    8.9059391999999953E+00    1.3711590380000002E+01    0.0000000000000000E+00
Au    1.1874585599999994E+01    1.3711590380000002E+01    0.0000000000000000E+00
Au    1.4843231999999993E+01    1.3711590380000002E+01    0.0000000000000000E+00
Au    6.1039710249836288E-08    1.6918681728415290E+00    2.4131280776666904E+00
Au    2.9558722336901586E+00    1.6957451465943170E+00    2.4079800685620456E+00
Au    5.9214090926029259E+00    1.7129325966655276E+00    2.4072978352216041E+00
Au    8.9059391823776206E+00    1.7355971350618273E+00    2.4237786221580642E+00
Au    1.1890469332814789E+01    1.7129325414044605E+00    2.4072977937201143E+00
Au    1.4856006292091729E+01    1.6957450209917131E+00    2.4079800953791155E+00
Au    1.4788944595971063E+00    4.2607231353670629E+00    2.4081598346568267E+00
Au    4.4459364223360902E+00    4.2734963740254166E+00    2.4314005882487399E+00
Au    7.4067339930237308E+00    4.2868285200654297E+00    2.4228224687956668E+00
Au    1.0405144300726365E+01    4.2868285531160790E+00    2.4228225902505671E+00
Au    1.3365942387251472E+01    4.2734961351522482E+00    2.4313999344953756E+00
Au    1.6332984203382637E+01    4.2607231373158543E+00    2.4081598498113101E+00
Au    5.4187050957868873E-08    6.8350872950973010E+00    2.4081806203135714E+00
Au    2.9602349809591488E+00    6.8341829634625828E+00    2.4065043614836918E+00
Au    5.9273926128383874E+00    6.8363917568750212E+00    2.4174045914580029E+00
Au    8.9059391739797285E+00    6.8542063828872823E+00    2.4946976518800588E+00
Au    1.1884485781988293E+01    6.8363918324036828E+00    2.4174046726528822E+00
Au    1.4851643508207442E+01    6.8341829461417616E+00    2.4065043359591387E+00
Au    1.4894550152126698E+00    9.4069393114295483E+00    2.4097448468121527E+00
Au    4.4636624890909706E+00    9.4122049951552142E+00    2.4174821280463417E+00
Au    7.4276169272462118E+00    9.4474763180242665E+00    2.4109223696545934E+00
Au    1.0384261523794217E+01    9.4474763977474510E+00    2.4109222231156702E+00
Au    1.3348215954290710E+01    9.4122050682995653E+00    2.4174822295732366E+00
Au    1.6322423383419732E+01    9.4069393150889464E+00    2.4097448134287927E+00
Au   -1.6854187883506961E-09    1.1973858947683826E+01    2.4099601268223760E+00
Au    2.9709264445394141E+00    1.1982039554135415E+01    2.4087087979679906E+00
Au    5.9342132139585857E+00    1.2012316284662843E+01    2.4050067245491031E+00
Au    8.9059391966528185E+00    1.2023286236829817E+01    2.4231232893155559E+00
Au    1.1877665201807106E+01    1.2012316316928292E+01    2.4050067488731068E+00
Au    1.4840951972259326E+01    1.1982039595948256E+01    2.4087087517029380E+00
Au    1.4805325597104513E+00    1.4547693922428373E+01    2.4093386838221051E+00
Au    4.4433502428563640E+00    1.4564418552121060E+01    2.4075610522833455E+00
Au    7.4186800830517150E+00    1.4593386672016146E+01    2.4087323602927690E+00
Au    1.0393198278721849E+01    1.4593386687134137E+01    2.4087323689709108E+00
Au    1.3368528184988715E+01    1.4564418543025312E+01    2.4075610175465552E+00
Au    1.6331345887434654E+01    1.4547693880325296E+01    2.4093386385725313E+00
Au    5.4101902873727289E-08   -3.9614252445542668E-02    4.8715150509718947E+00
Au    2.9301922050615352E+00   -3.1398450719029469E-02    4.8719744341953328E+00
Au    5.8867607919949538E+00   -1.9756356786405242E-02    4.8745063589775359E+00
Au    8.9059392091336829E+00    3.6574289957701902E-03    4.8641547146347230E+00
Au    1.1925117585237141E+01   -1.9756361609190618E-02    4.8745063091935439E+00
Au    1.4881686301991072E+01   -3.1398564915464083E-02    4.8719744968238361E+00
Au    1.4587104585537274E+00    2.5265762104261893E+00    4.8766416074082848E+00
Au    4.3862270528461975E+00    2.5110713112155953E+00    4.8724266265793048E+00
Au    7.3477508320215765E+00    2.4723661248622695E+00    4.8650722816873131E+00
Au    1.0464127576219317E+01    2.4723661837494131E+00    4.8650722538866980E+00
Au    1.3425651598816636E+01    2.5110710005711741E+00    4.8724266011482120E+00
Au    1.6353168119754244E+01    2.5265761550542662E+00    4.8766415482917571E+00
Au    2.0313675788095063E-07    5.1039836619437473E+00    4.8705548431392556E+00
Au    2.9026503343870300E+00    5.0986431845106255E+00    4.8711299935396841E+00
Au    5.8097050571559254E+00    5.0580770653304574E+00    4.9124258335114019E+00
Au    8.9059391867364504E+00    4.8974633113181776E+00    4.8019391520476491E+00
Au    1.2002174130205853E+01    5.0580763494545806E+00    4.9124243390909310E+00
Au    1.4909228476825362E+01    5.0986431531415279E+00    4.8711298916086223E+00
Au    1.4508135680761993E+00    7.6889658745085141E+00    4.8693848757644220E+00
Au    4.3375378856523881E+00    7.6929730637726923E+00    4.8606116057008251E+00
Au    7.2182660889236328E+00    7.8463958331315418E+00    4.7769922654678814E+00
Au    1.0593612377235770E+01    7.8463962028789878E+00    4.7769919205872489E+00
Au    1.3474340689673703E+01    7.6929730643954706E+00    4.8606115997800643E+00
Au    1.6361064991922326E+01    7.6889658817855828E+00    4.8693847742192595E+00
Au    2.9515518534123273E-08    1.0258905731051648E+01    4.8579179465361566E+00
Au    2.9378485337531144E+00    1.0276380417944011E+01    4.8574126674690099E+00
Au    5.8667928196771140E+00    1.0389830898073672E+01    4.8551644739859148E+00
Au    8.9059390051156662E+00    1.0448610268429059E+01    4.8807067889366929E+00
Au    1.1945085829429436E+01    1.0389831173241413E+01    4.8551645469958178E+00
Au    1.4874030007098934E+01    1.0276380470530892E+01    4.8574127491059720E+00
Au    1.4702170118075601E+00    1.2826429780748251E+01    4.8621746128832299E+00
Au    4.4066756101330773E+00    1.2873640113235778E+01    4.8705628951569313E+00
Au    7.3921341843982713E+00    1.2924410379124271E+01    4.8605077148875928E+00
Au    1.0419744206407644E+01    1.2924410342510162E+01    4.8605076706335151E+00
Au    1.3405202906007169E+01    1.2873640275728784E+01    4.8705629278471179E+00
Au    1.6341661412508564E+01    1.2826429791805456E+01    4.8621746198141800E+00
Au    7.4229681282904645E+00    6.0420285532447400E+00    6.9199360010133111E+00
Au    1.0388912149658415E+01    6.0420294596391759E+00    6.9199351911428302E+00
Au    8.9059404552089578E+00    8.5821967136821602E+00    6.9230910264224530E+00
Au    8.9059403048369514E+00    6.8407059859128916E+00    9.0879357932121732E+00
Au    8.9058649820529556E+00    6.2213577945480516E+00    1.1624458100970051E+01
Au    8.9060957207239628E+00    7.8518813429316925E+00    1.3669728764510401E+01
Au    8.9057717068256661E+00    7.3766065536840699E+00    1.6241863237093590E+01
Au    8.9060475373090178E+00    5.8796478718552168E+00    1.8379372704376053E+01
Au    8.9059066480913298E+00    7.2311188907933062E+00    2.0607948404451452E+01
Au    8.9059392296321374E+00    6.8470599536267347E+00    2.3206390571616122E+01
Au    8.9059392545921821E+00    5.1416574580154943E+00    2.5414548460152258E+01
Au    7.4440085998969074E+00    7.6829286101016701E+00    2.5393405763383086E+01
Au    1.0367870549577598E+01    7.6829287830830637E+00    2.5393406832432017E+01
Au   -4.3463462541430175E-08    1.7162915539149293E+00    2.7556112579867296E+01
Au    2.9444168261548858E+00    1.7109932854010925E+00    2.7548367928685753E+01
Au    5.8916022227293245E+00    1.6716648183368177E+00    2.7548894560261463E+01
Au    8.9059391538709001E+00    1.6720842467989552E+00    2.7529114536869645E+01
Au    1.1920276134254436E+01    1.6716647747740561E+00    2.7548894601083290E+01
Au    1.4867461661216872E+01    1.7109931397111671E+00    2.7548367945883584E+01
Au    1.4686180428553670E+00    4.2857332697710850E+00    2.7550186621266640E+01
Au    4.4020502967994206E+00    4.2666851105858159E+00    2.7558394521825729E+01
Au    7.3530981843164618E+00    4.1786444408282488E+00    2.7526118981912091E+01
Au    1.0458780017191547E+01    4.1786445666493579E+00    2.7526118619155678E+01
Au    1.3409828221997966E+01    4.2666848331323957E+00    2.7558394401100841E+01
Au    1.6343260415351313E+01    4.2857332188975814E+00    2.7550186802408014E+01
Au    5.5744873134193507E-08    6.8698580436569010E+00    2.7546302609915326E+01
Au    2.9112496000899695E+00    6.8630288094116016E+00    2.7545919860736642E+01
Au    5.8113181191951808E+00    6.8744319181013971E+00    2.7510400907977072E+01
Au    8.9059390608824298E+00    6.8614270731462392E+00    2.7724906843585629E+01
Au    1.2000560590074285E+01    6.8744314336388124E+00    2.7510401359103014E+01
Au    1.4900628983597240E+01    6.8630288376500692E+00    2.7545919904234108E+01
Au    1.4665958740092395E+00    9.4486366264174730E+00    2.7542005282655833E+01
Au    4.3969118247808172E+00    9.4646833620520265E+00    2.7521090938271414E+01
Au    7.3446473092032187E+00    9.5281222751925032E+00    2.7499480857676527E+01
Au    1.0467230896017295E+01    9.5281230042631453E+00    2.7499481493461293E+01
Au    1.3414966434221760E+01    9.4646833359817091E+00    2.7521091092674290E+01
Au    1.6345282527829102E+01    9.4486366836427784E+00    2.7542005377402536E+01
Au    8.0604341463475349E-12    1.2014657479088045E+01    2.7546490240044438E+01
Au    2.9485973997154833E+00    1.2016491579332953E+01    2.7543709764760735E+01
Au    5.9067704672451020E+00    1.2050787079008670E+01    2.7545155637297320E+01
Au    8.9059390141787489E+00    1.2039840667729996E+01    2.7553233711081162E+01
Au    1.1905108010599458E+01    1.2050787255362014E+01    2.7545155632147754E+01
Au    1.4863281021660539E+01    1.2016491575818430E+01    2.7543709782951751E+01
Au    1.4752573618763507E+00    1.4573427718753516E+01    2.7554371757832683E+01
Au    4.4273757649591348E+00    1.4573858569672113E+01    2.7547313453145104E+01
Au    7.4125503728889317E+00    1.4576266395280474E+01    2.7544955844327745E+01
Au    1.0399327997223336E+01    1.4576266377596708E+01    2.7544955907302054E+01
Au    1.3384502674730099E+01    1.4573858603351011E+01    2.7547313460557767E+01
Au    1.6336621011530287E+01    1.4573427758544419E+01    2.7554371663573693E+01
Au   -1.7097003440614573E-08    7.0918776362217661E-03    3.0002385611943282E+01
Au    2.9691388699076846E+00    5.3652515662968199E-03    3.0000443958341805E+01
Au    5.9375443845266203E+00   -6.9207603370870768E-03    3.0000842348814469E+01
Au    8.9059392171021940E+00    3.8922920985157493E-03    2.9991689136590331E+01
Au    1.1874333997403189E+01   -6.9207837880746392E-03    3.0000842397307760E+01
Au    1.4842739509284758E+01    5.3652267865280925E-03    3.0000443997438229E+01
Au    1.4854450892966273E+00    2.5792479919002735E+00    2.9999999850594961E+01
Au    4.4551356500408561E+00    2.5726989552931645E+00    3.0002130088666473E+01
Au    7.4155109920734219E+00    2.5689584910788099E+00    2.9989730807824539E+01
Au    1.0396367406440737E+01    2.5689585699412913E+00    2.9989730607124077E+01
Au    1.3356742729931950E+01    2.5726989108464520E+00    3.0002130108849677E+01
Au    1.6326433318119168E+01    2.5792479403685640E+00    2.9999999913013230E+01
Au    1.5207306601419479E-08    5.1522051508456839E+00    2.9997810531474190E+01
Au    2.9671817933620521E+00    5.1506835977715850E+00    3.0002301827849752E+01
Au    5.9392785618904318E+00    5.1499762497468131E+00    2.9957257658795413E+01
Au    8.9059391887353954E+00    5.1216190247050708E+00    3.0001711291431121E+01
Au    1.1872599792948186E+01    5.1499760656654470E+00    2.9957257578496105E+01
Au    1.4844696555479787E+01    5.1506836196118488E+00    3.0002301874390955E+01
Au    1.4815514198257123E+00    7.7254415870252826E+00    3.0000229296270497E+01
Au    4.4481892519128943E+00    7.7153775968424823E+00    2.9988050033642960E+01
Au    7.4022009443757462E+00    7.7256715518483006E+00    2.9999843119655427E+01
Au    1.0409677462979449E+01    7.7256715457338814E+00    2.9999843115581587E+01
Au    1.3363689129414325E+01    7.7153775931731383E+00    2.9988050009825905E+01
Au    1.6330327028482255E+01    7.7254415632226801E+00    3.0000229313032051E+01
Au    2.3070974179153057E-08    1.0295109318099339E+01    2.9999274567528044E+01
Au    2.9753684511000666E+00    1.0285142582175130E+01    2.9992523553652081E+01
Au    5.9389561290906920E+00    1.0289981177725837E+01    2.9984874956978448E+01
Au    8.9059390316126184E+00    1.0273536582280368E+01    2.9947960851918040E+01
Au    1.1872922312213815E+01    1.0289981207991914E+01    2.9984875047586559E+01
Au    1.4836510002038414E+01    1.0285142618774955E+01    2.9992523631674988E+01
Au    1.4842341197004776E+00    1.2858602287031085E+01    3.0001514059504100E+01
Au    4.4466263839314664E+00    1.2857575608013004E+01    3.0000367998533864E+01
Au    7.4221916608245833E+00    1.2850617037111412E+01    2.9997969613993703E+01
Au    1.0389686690116971E+01    1.2850616976915751E+01    2.9997969591716185E+01
Au    1.3365252014498422E+01    1.2857575624384713E+01    3.0000368042709674E+01
Au    1.6327644289625265E+01    1.2858602277836644E+01    3.0001514049061388E+01
     &END COORD
     &KIND Au
       BASIS_SET TZVP-MOLOPT-SR-GTH-q11
       ELEMENT Au
       POTENTIAL GTH-PBE-q11
       &POTENTIAL
1 0 10
0.5900000000000000E+00 1  0.1051717881000000E+02
3
0.5438473300000000E+00 2  0.5786811030000000E+01 -0.2250679660000000E+01
0.2905614950000000E+01
0.6091729800000000E+00 2  0.4284048730000000E+01 -0.4071285200000000E+01
0.4817209620000000E+01
0.4373092200000000E+00 2 -0.7403281240000000E+01  0.3010193070000000E+01
-0.3413238110000000E+01
       &END POTENTIAL
     &END KIND
     &TOPOLOGY
       COORD_FILE_NAME junction_65.xyz
       COORD_FILE_FORMAT  XYZ
       NUMBER_OF_ATOMS  193
       MULTIPLE_UNIT_CELL  1 1 1
     &END TOPOLOGY
   &END SUBSYS
   &PRINT
     &TOTAL_NUMBERS  ON
     &END TOTAL_NUMBERS
   &END PRINT
 &END FORCE_EVAL
