SystemName  Au wire leads
SystemLabel Au_wire_leads_sp
#********************************************************
# Specification of atomic species and positions
#********************************************************
# Chemical species
NumberOfSpecies 1
%block ChemicalSpeciesLabel
 1 79 Au
%endblock ChemicalSpeciesLabel
# UNIT CELL
LatticeConstant       1.0 Ang
%block LatticeVectors
  9.000   0.000   0.000	  1
  0.000   9.000   0.000   1
  0.000   0.000   5.600   1
%endblock LatticeVectors
# ATOMIC POSITIONS
NumberOfAtoms    2
AtomicCoordinatesFormat Ang
%block AtomicCoordinatesAndAtomicSpecies
   0.000   0.000  0.000   1  Au  1
   0.000   0.000  2.800   1  Au  2
%endblock AtomicCoordinatesAndAtomicSpecies 	
#********************************************************
# DFT options
#********************************************************
# Basis set variables
PAO.BasisType split
PAO.SplitNorm			0.15		# Amount of norm carried by the second zeta
%block PAO.Basis
  Au  1
n=6  0  1  P 0 E 20 4
  5.5
%endblock PAO.Basis
%block PS.lmax
 Au   1
%endblock PS.lmax
# k-mesh for Brillouin zone integration
%block kgrid_Monkhorst_Pack
  1   0   0     0.0
  0   1   0     0.0
  0   0   31    0.0
%endblock kgrid_Monkhorst_Pack
# General variables
ElectronicTemperature  300 K
MeshCutoff             200 Ry
xc.functional          LDA           # Exchange-correlation functional
xc.authors             CA
SpinPolarized          T
# SCF variables
DM.MixSCF1            F
MaxSCFIterations      1000           # Maximum number of SCF iter
DM.MixingWeight       0.1            # New DM amount for next SCF cycle
DM.Tolerance          1.0d-4         # Tolerance in maximum difference
DM.UseSaveDM          true           # to use continuation files
DM.NumberPulay        4
# Output variables
WriteMullikenPop                0
WriteBands                      F
SaveRho                         T
SaveElectrostaticPotential      T
SaveTotalPotential              F
WriteCoorXmol                   T
WriteMDXmol                     T
#********************************************************
# SMEAGOL options
#********************************************************
# generate the leads input files bulklft.DAT, buklrgt.DAT, systemlabel.HST, systemlabel.DM.
BulkTransport			T
BulkLeads              LR
