 # Version information for this restart file 
 # current date 2023-11-17 11:26:08.816
 # current working dir /mnt/lustre/a2fs-work2/work/e05/e05/cahart/postdoc/transport/cp2k-smeagol-examples/au-h2/cp2k-smeagol/geo_opt/kpoints-3-3-20_omp-2_ParallelOverKNum-3_contour-single_dynamic-14/1.3
 # Program compiled at                              Mon 30 Oct 16:32:24 GMT 2023
 # Program compiled on                                                      ln03
 # Program compiled for                                                    local
 # Source code revision number                                       git:215a478
 &GLOBAL
   EXTENDED_FFT_LENGTHS  T
   PRINT_LEVEL  MEDIUM
   PROJECT_NAME 1.3V
   RUN_TYPE  GEO_OPT
 &END GLOBAL
 &MOTION
   &GEO_OPT
     TYPE  MINIMIZATION
     OPTIMIZER  BFGS
     MAX_ITER  200
     MAX_DR     1.0000000000000000E-03
     MAX_FORCE     1.0000000000000000E-03
     RMS_DR     1.0000000000000000E-03
     RMS_FORCE     1.0000000000000000E-03
     STEP_START_VAL  41
   &END GEO_OPT
   &CONSTRAINT
     &FIXED_ATOMS
       LIST  1..54 69..113
     &END FIXED_ATOMS
   &END CONSTRAINT
   &PRINT
     &TRAJECTORY  ON
       UNIT angstrom
       FORMAT  XMOL
     &END TRAJECTORY
     &FORCES  SILENT
       UNIT hartree*bohr^-1
       FORMAT  XMOL
     &END FORCES
   &END PRINT
 &END MOTION
 &FORCE_EVAL
   METHOD  QS
   &DFT
     BASIS_SET_FILE_NAME BASIS_MOLOPT
     POTENTIAL_FILE_NAME GTH_POTENTIALS
     WFN_RESTART_FILE_NAME 0V-RESTART_0.kp
     &SCF
       MAX_SCF  500
       EPS_SCF     9.9999999999999995E-07
       SCF_GUESS  RESTART
       ADDED_MOS  100
       &SMEAR  T
         METHOD  FERMI_DIRAC
         ELECTRONIC_TEMPERATURE     3.0000000000000000E+02
       &END SMEAR
       &MIXING  T
         METHOD  BROYDEN_MIXING
         ALPHA     2.9999999999999999E-01
         NBUFFER  8
       &END MIXING
       &PRINT
         &RESTART  SILENT
           FILENAME RESTART_0
         &END RESTART
       &END PRINT
     &END SCF
     &QS
       EXTRAPOLATION  LINEAR_P
     &END QS
     &MGRID
       CUTOFF     6.0000000000000000E+02
       REL_CUTOFF     6.0000000000000000E+01
     &END MGRID
     &XC
       DENSITY_CUTOFF     1.0000000000000000E-10
       GRADIENT_CUTOFF     1.0000000000000000E-10
       TAU_CUTOFF     1.0000000000000000E-10
       &XC_FUNCTIONAL  NO_SHORTCUT
         &PBE  T
         &END PBE
       &END XC_FUNCTIONAL
     &END XC
     &POISSON
       PERIODIC  XYZ
     &END POISSON
     &KPOINTS
       SCHEME MONKHORST-PACK 3 3 1
       SYMMETRY  F
       FULL_GRID  T
       VERBOSE  T
       EPS_GEO     1.0000000000000000E-08
       PARALLEL_GROUP_SIZE  0
     &END KPOINTS
     &PRINT
       &E_DENSITY_CUBE  ON
         STRIDE  4 4 4
       &END E_DENSITY_CUBE
       &V_HARTREE_CUBE  SILENT
         STRIDE  4 4 4
       &END V_HARTREE_CUBE
       &HIRSHFELD  SILENT
         SHAPE_FUNCTION  DENSITY
       &END HIRSHFELD
     &END PRINT
     &SMEAGOL  T
       PROJECT_NAME 1.3V
       EMTRANSPORT  T
       TRCOEFFICIENTS  T
       NENERGREAL  64
       NIVPOINTS  0
       NTRANSMPOINTS  800
       DELTA     1.0000000000000000E-04
       VINITIAL     9.5548246046794030E-02
       VFINAL     9.5548246046794030E-02
       ENERGLOWESTBOUND    -7.3498650805226173E+00
       INITTRANSMRANGE    -7.3498650805226173E-01
       FINALTRANSMRANGE     7.3498650805226173E-01
       TRC.LEADSDOS  T
       TRC.EMDOS  T
       EM.PARALLELOVERKNUM  3
       HARTREELEADSBOTTOM    -8.0435347681615321E-01
     &END SMEAGOL
   &END DFT
   &SUBSYS
     &CELL
       A     8.8671199999999999E+00    0.0000000000000000E+00    0.0000000000000000E+00
       B     0.0000000000000000E+00    8.8671199999999999E+00    0.0000000000000000E+00
       C     0.0000000000000000E+00    0.0000000000000000E+00    3.8719999999999999E+01
       PERIODIC  XYZ
       MULTIPLE_UNIT_CELL  1 1 1
     &END CELL
     &COORD
Au    1.7869999999999999E+00    1.2809999999999999E+00    0.0000000000000000E+00
Au    3.0900000000000000E-01    2.7589999999999999E+00    2.0899999999999999E+00
Au    1.7869999999999999E+00    1.2809999999999999E+00    4.1799999999999997E+00
Au    3.0900000000000000E-01    2.7589999999999999E+00    6.2699999999999996E+00
Au    4.7430000000000003E+00    1.2809999999999999E+00    0.0000000000000000E+00
Au    3.2650000000000001E+00    2.7589999999999999E+00    2.0899999999999999E+00
Au    4.7430000000000003E+00    1.2809999999999999E+00    4.1799999999999997E+00
Au    3.2650000000000001E+00    2.7589999999999999E+00    6.2699999999999996E+00
Au    7.6989999999999998E+00    1.2809999999999999E+00    0.0000000000000000E+00
Au    6.2210000000000010E+00    2.7589999999999999E+00    2.0899999999999999E+00
Au    7.6989999999999998E+00    1.2809999999999999E+00    4.1799999999999997E+00
Au    6.2210000000000010E+00    2.7589999999999999E+00    6.2699999999999996E+00
Au    1.7869999999999999E+00    4.2359999999999998E+00    0.0000000000000000E+00
Au    3.0900000000000000E-01    5.7140000000000004E+00    2.0899999999999999E+00
Au    1.7869999999999999E+00    4.2359999999999998E+00    4.1799999999999997E+00
Au    3.0900000000000000E-01    5.7140000000000004E+00    6.2699999999999996E+00
Au    4.7430000000000003E+00    4.2359999999999998E+00    0.0000000000000000E+00
Au    3.2650000000000001E+00    5.7140000000000004E+00    2.0899999999999999E+00
Au    4.7430000000000003E+00    4.2359999999999998E+00    4.1799999999999997E+00
Au    3.2650000000000001E+00    5.7140000000000004E+00    6.2699999999999996E+00
Au    7.6989999999999998E+00    4.2359999999999998E+00    0.0000000000000000E+00
Au    6.2210000000000010E+00    5.7140000000000004E+00    2.0899999999999999E+00
Au    7.6989999999999998E+00    4.2359999999999998E+00    4.1799999999999997E+00
Au    6.2210000000000010E+00    5.7140000000000004E+00    6.2699999999999996E+00
Au    1.7869999999999999E+00    7.1920000000000002E+00    0.0000000000000000E+00
Au    3.0900000000000000E-01    8.6699999999999999E+00    2.0899999999999999E+00
Au    1.7869999999999999E+00    7.1920000000000002E+00    4.1799999999999997E+00
Au    3.0900000000000000E-01    8.6699999999999999E+00    6.2699999999999996E+00
Au    4.7430000000000003E+00    7.1920000000000002E+00    0.0000000000000000E+00
Au    3.2650000000000001E+00    8.6699999999999999E+00    2.0899999999999999E+00
Au    4.7430000000000003E+00    7.1920000000000002E+00    4.1799999999999997E+00
Au    3.2650000000000001E+00    8.6699999999999999E+00    6.2699999999999996E+00
Au    7.6989999999999998E+00    7.1920000000000002E+00    0.0000000000000000E+00
Au    6.2210000000000010E+00    8.6699999999999999E+00    2.0899999999999999E+00
Au    7.6989999999999998E+00    7.1920000000000002E+00    4.1799999999999997E+00
Au    6.2210000000000010E+00    8.6699999999999999E+00    6.2699999999999996E+00
Au    1.7869999999999999E+00    1.2809999999999999E+00    8.3599999999999994E+00
Au    1.7869999999999999E+00    4.2359999999999998E+00    8.3599999999999994E+00
Au    1.7869999999999999E+00    7.1920000000000002E+00    8.3599999999999994E+00
Au    4.7430000000000003E+00    1.2809999999999999E+00    8.3599999999999994E+00
Au    4.7430000000000003E+00    4.2359999999999998E+00    8.3599999999999994E+00
Au    4.7430000000000003E+00    7.1920000000000002E+00    8.3599999999999994E+00
Au    7.6989999999999998E+00    1.2809999999999999E+00    8.3599999999999994E+00
Au    7.6989999999999998E+00    4.2359999999999998E+00    8.3599999999999994E+00
Au    7.6989999999999998E+00    7.1920000000000002E+00    8.3599999999999994E+00
Au    3.0900000000000000E-01    2.7589999999999999E+00    1.0449999999999999E+01
Au    3.0900000000000000E-01    5.7140000000000004E+00    1.0449999999999999E+01
Au    3.0900000000000000E-01    8.6699999999999999E+00    1.0449999999999999E+01
Au    3.2650000000000001E+00    2.7589999999999999E+00    1.0449999999999999E+01
Au    3.2650000000000001E+00    5.7140000000000004E+00    1.0449999999999999E+01
Au    3.2650000000000001E+00    8.6699999999999999E+00    1.0449999999999999E+01
Au    6.2210000000000010E+00    2.7589999999999999E+00    1.0449999999999999E+01
Au    6.2210000000000010E+00    5.7140000000000004E+00    1.0449999999999999E+01
Au    6.2210000000000010E+00    8.6699999999999999E+00    1.0449999999999999E+01
Au    1.7239569348893700E+00    4.1735319351381124E+00    1.2461947198592325E+01
Au    1.7216078995777848E+00    7.2535982743878495E+00    1.2461651662450324E+01
Au    4.8043434604848185E+00    4.1709170875937609E+00    1.2462173588017077E+01
Au    4.8064985716541022E+00    7.2556101342940265E+00    1.2462709972440813E+01
Au    3.2520077185581222E+00    5.7021586906433210E+00    1.4346195423021637E+01
Au    3.7017758876776679E+00    6.1327017596404803E+00    1.7013855832134638E+01
H    3.4216835635107343E+00    5.8649101827850147E+00    1.8785127139246875E+01
H    3.4380534664157225E+00    5.8806470894068239E+00    1.9690951844832007E+01
Au    3.3487032745514687E+00    5.7951824262672273E+00    2.1505001026280105E+01
Au    3.2767134052499243E+00    5.7258928421772861E+00    2.4219692559706655E+01
Au    1.7600392802256613E+00    4.2093944768949942E+00    2.6242077184392965E+01
Au    1.7565632902500252E+00    7.2217263567479195E+00    2.6243606533933420E+01
Au    4.7726969480173027E+00    4.2058821118767353E+00    2.6243146149036427E+01
Au    4.7760121145021346E+00    7.2251934947337570E+00    2.6244697587766449E+01
Au    3.0900000000000000E-01    2.7589999999999999E+00    2.8270000000000000E+01
Au    3.0900000000000000E-01    5.7140000000000004E+00    2.8270000000000000E+01
Au    3.0900000000000000E-01    8.6699999999999999E+00    2.8270000000000000E+01
Au    3.2650000000000001E+00    2.7589999999999999E+00    2.8270000000000000E+01
Au    3.2650000000000001E+00    5.7140000000000004E+00    2.8270000000000000E+01
Au    3.2650000000000001E+00    8.6699999999999999E+00    2.8270000000000000E+01
Au    6.2210000000000010E+00    2.7589999999999999E+00    2.8270000000000000E+01
Au    6.2210000000000010E+00    5.7140000000000004E+00    2.8270000000000000E+01
Au    6.2210000000000010E+00    8.6699999999999999E+00    2.8270000000000000E+01
Au    1.7869999999999999E+00    1.2809999999999999E+00    3.0359999999999999E+01
Au    3.0900000000000000E-01    2.7589999999999999E+00    3.2450000000000003E+01
Au    1.7869999999999999E+00    1.2809999999999999E+00    3.4539999999999999E+01
Au    3.0900000000000000E-01    2.7589999999999999E+00    3.6630000000000010E+01
Au    4.7430000000000003E+00    1.2809999999999999E+00    3.0359999999999999E+01
Au    3.2650000000000001E+00    2.7589999999999999E+00    3.2450000000000003E+01
Au    4.7430000000000003E+00    1.2809999999999999E+00    3.4539999999999999E+01
Au    3.2650000000000001E+00    2.7589999999999999E+00    3.6630000000000010E+01
Au    7.6989999999999998E+00    1.2809999999999999E+00    3.0359999999999999E+01
Au    6.2210000000000010E+00    2.7589999999999999E+00    3.2450000000000003E+01
Au    7.6989999999999998E+00    1.2809999999999999E+00    3.4539999999999999E+01
Au    6.2210000000000010E+00    2.7589999999999999E+00    3.6630000000000010E+01
Au    1.7869999999999999E+00    4.2359999999999998E+00    3.0359999999999999E+01
Au    3.0900000000000000E-01    5.7140000000000004E+00    3.2450000000000003E+01
Au    1.7869999999999999E+00    4.2359999999999998E+00    3.4539999999999999E+01
Au    3.0900000000000000E-01    5.7140000000000004E+00    3.6630000000000010E+01
Au    4.7430000000000003E+00    4.2359999999999998E+00    3.0359999999999999E+01
Au    3.2650000000000001E+00    5.7140000000000004E+00    3.2450000000000003E+01
Au    4.7430000000000003E+00    4.2359999999999998E+00    3.4539999999999999E+01
Au    3.2650000000000001E+00    5.7140000000000004E+00    3.6630000000000010E+01
Au    7.6989999999999998E+00    4.2359999999999998E+00    3.0359999999999999E+01
Au    6.2210000000000010E+00    5.7140000000000004E+00    3.2450000000000003E+01
Au    7.6989999999999998E+00    4.2359999999999998E+00    3.4539999999999999E+01
Au    6.2210000000000010E+00    5.7140000000000004E+00    3.6630000000000010E+01
Au    1.7869999999999999E+00    7.1920000000000002E+00    3.0359999999999999E+01
Au    3.0900000000000000E-01    8.6699999999999999E+00    3.2450000000000003E+01
Au    1.7869999999999999E+00    7.1920000000000002E+00    3.4539999999999999E+01
Au    3.0900000000000000E-01    8.6699999999999999E+00    3.6630000000000010E+01
Au    4.7430000000000003E+00    7.1920000000000002E+00    3.0359999999999999E+01
Au    3.2650000000000001E+00    8.6699999999999999E+00    3.2450000000000003E+01
Au    4.7430000000000003E+00    7.1920000000000002E+00    3.4539999999999999E+01
Au    3.2650000000000001E+00    8.6699999999999999E+00    3.6630000000000010E+01
Au    7.6989999999999998E+00    7.1920000000000002E+00    3.0359999999999999E+01
Au    6.2210000000000010E+00    8.6699999999999999E+00    3.2450000000000003E+01
Au    7.6989999999999998E+00    7.1920000000000002E+00    3.4539999999999999E+01
Au    6.2210000000000010E+00    8.6699999999999999E+00    3.6630000000000010E+01
     &END COORD
     &KIND Au
       BASIS_SET SZV-MOLOPT-SR-GTH
       POTENTIAL GTH-PBE-q11
       &POTENTIAL
 1 0 10
  0.5900000000000000E+00 1  0.1051717881000000E+02
 3
  0.5438473300000000E+00 2  0.5786811030000000E+01 -0.2250679660000000E+01
  0.2905614950000000E+01
  0.6091729800000000E+00 2  0.4284048730000000E+01 -0.4071285200000000E+01
  0.4817209620000000E+01
  0.4373092200000000E+00 2 -0.7403281240000000E+01  0.3010193070000000E+01
 -0.3413238110000000E+01
         # Potential name:  GTH-PBE-Q11  for symbol:  AU
         # Potential read from the potential filename: GTH_POTENTIALS
       &END POTENTIAL
     &END KIND
     &KIND H
       BASIS_SET DZVP-MOLOPT-SR-GTH
       ELEMENT H
       POTENTIAL GTH-PBE-q1
       &POTENTIAL
 1
  0.2000000000000000E+00 2 -0.4178900440000000E+01  0.7244633100000000E+00
 0
         # Potential name:  GTH-PBE-Q1  for symbol:  H
         # Potential read from the potential filename: GTH_POTENTIALS
       &END POTENTIAL
     &END KIND
     &TOPOLOGY
       COORD_FILE_NAME em.xyz
       COORD_FILE_FORMAT  XYZ
       NUMBER_OF_ATOMS  113
       MULTIPLE_UNIT_CELL  1 1 1
     &END TOPOLOGY
   &END SUBSYS
   &PRINT
     &FORCES  SILENT
     &END FORCES
   &END PRINT
 &END FORCE_EVAL
