
#FDF: Opened INPUT_TMP            for input. Unit: 12

fdf-debug              0     # Default value
SystemName     H2CO                                                                                                                                
SystemLabel     H2CO                                                                                                                                
alloc_report_level              0     # Default value
user-basis              F     # Default value
user-basis-netcdf              F     # Default value
PAO.BasisSize     standard            # Default value
PAO.BasisType     split          # Default value
Number_of_species                        3

%block ChemicalSpeciesLabel                                                    
  1  1  H                                                                      
  2  6  C                                                                      
  3  8  O                                                                      
%endblock ChemicalSpeciesLabel                                                 
 

%block PAO.BasisSizes                                                          
H   DZP                                                                        
C   DZP                                                                        
O   DZP                                                                        
%endblock PAO.BasisSizes                                                       
 
PS.SIC              F     # Default value
ProjectionMethod     Zeta     # Default value
SIC.Flavour     Pseudo     # Default value
SIC.Lambda         0.5000000000         # Default value
SIC.NoRelaxation              F     # Default value
WriteProjections              T     # Default value
ProjectionInSCF              F     # Default value
SIC.PopKgridFactor              1     # Default value
SIC.PopDMConv         0.1000000000E-03     # Default value
SIC.PopSmatSparsity         0.1000000000E-03     # Default value
SIC.ProjectionMode     SaveTime     # Default value
SIC.Npop              1     # Default value
SpinOrbit              F     # Default value
SpinOrbit              F     # Default value
xc.functional     GGA                                                                                                                                 
xc.authors     PBE                                                                                                                                 
PAO.EnergyShift         0.1837449711E-02         Ry
# Above item originally: PAO.EnergyShift          25.00000000     meV       
PAO.SplitNorm         0.1500000000         # Default value
PAO.SplitNorm         0.1500000000         # Default value
SpinOrbit              F     # Default value
xc.functional     GGA                                                                                                                                 
xc.authors     PBE                                                                                                                                 
PAO.EnergyShift         0.1837449711E-02         Ry
# Above item originally: PAO.EnergyShift          25.00000000     meV       
PAO.SplitNorm         0.1500000000         # Default value
PAO.SplitNorm         0.1500000000         # Default value
SpinOrbit              F     # Default value
xc.functional     GGA                                                                                                                                 
xc.authors     PBE                                                                                                                                 
PAO.EnergyShift         0.1837449711E-02         Ry
# Above item originally: PAO.EnergyShift          25.00000000     meV       
PAO.SplitNorm         0.1500000000         # Default value
PAO.SplitNorm         0.1500000000         # Default value
PAO.BasisType     split          # Default value
LatticeConstant          1.889726878           Bohr
# Above item originally: LatticeConstant          1.000000000     Ang       

%block LatticeVectors                                                          
 15.000000   0.000000   0.000000                                               
  0.000000  15.000000   0.000000                                               
  0.000000   0.000000  15.000000                                               
%endblock LatticeVectors                                                       
 

%block LatticeVectors                                                          
 15.000000   0.000000   0.000000                                               
  0.000000  15.000000   0.000000                                               
  0.000000   0.000000  15.000000                                               
%endblock LatticeVectors                                                       
 
AtomicCoordinatesFormat     Ang                                                                                                                                 
NumberOfAtoms                        4

%block AtomicCoordinatesAndAtomicSpecies                                       
  0.00000000   1.22438253   0.00000000 3 #   O 1                               
  0.00000000   0.00000000   0.00000000 2 #   C 2                               
 -0.96361063  -0.60270000   0.00000000 1 #   H 3                               
  0.96361023  -0.60270000   0.00000000 1 #   H 4                               
%endblock AtomicCoordinatesAndAtomicSpecies                                    
 
SpinPolarized              F
NonCollinearSpin              F     # Default value
SpinOrbit              F     # Default value
LongOutput              F     # Default value
NumberOfSpecies                        3
WriteDenchar              F     # Default value
WriteMullikenPop                        1
MeshCutoff          200.0000000             Ry
# Above item originally: MeshCutoff          200.0000000     Ry        
NetCharge          0.000000000         # Default value
MaxSCFIterations                      100
DM.NumberPulay                       20
DM.MixSCF1              F     # Default value
DM.PulayOnFile              F     # Default value
DM.MixingWeight         0.2000000000E-01
DM.NumberKick              0     # Default value
DM.KickMixingWeight         0.5000000000         # Default value
DM.Tolerance         0.5000000000E-03
UseSaveData              F     # Default value
DM.UseSaveDM              F     # Default value
NeglNonOverlapInt              F     # Default value
SolutionMethod     diagon                                                                                                                              
DiagMemory          2.000000000         # Default value
DiagScale          1.500000000         # Default value
TryMemoryIncrease              T     # Default value
ElectronicTemperature         0.9500346345E-03         Ry
# Above item originally: ElectronicTemperature          150.0000000     K         
FixSpin              F
ON.MaxNumIter           1000     # Default value
ON.etol         0.1000000000E-07     # Default value
ON.eta          0.000000000     Ry     # Default value
On.RcLWF          9.500000000     Bohr     # Default value
UseSaveData              F     # Default value
ON.UseSaveLWF              F     # Default value
ON.functional     kim               # Default value
ON.ChemicalPotential              F     # Default value
ON.ChemicalPotentialUse              F     # Default value
ON.ChemicalPotentialRc          9.500000000     Bohr     # Default value
ON.ChemicalPotentialTemperature         0.5000000075E-01 Ry     # Default value
ON.ChemicalPotentialOrder            100     # Default value
MD.VariableCell              F     # Default value
MD.TypeOfRun     neb                                                                                                                                 
MD.LengthTimeStep          1.000000000     fs     # Default value
MD.NumCGsteps              0     # Default value
MD.NumNEBsteps                        1
MD.MaxCGDispl         0.2000000000     Bohr     # Default value
MD.MaxForceTol         0.2333609261E-02    Ry/Bohr
# Above item originally: MD.MaxForceTol         0.6000000000E-01 eV/Ang    
MD.MaxStressTol         0.6797730000E-04 Ry/Bohr**3     # Default value
MD.InitialTimeStep              1     # Default value
MD.FinalTimeStep              1     # Default value
MD.Quench              F     # Default value
MD.InitialTemperature          0.000000000     K     # Default value
MD.NumOfImages                        4
MD.TargetTemperature          0.000000000     K     # Default value
MD.TargetPressure          0.000000000     Ry/Bohr**3     # Default value
MD.NoseMass          100.0000000     Ry*fs**2     # Default value
MD.ParrinelloRahmanMass          100.0000000     Ry*fs**2     # Default value
MD.AnnealOption     TemperatureAndPressure     # Default value
MD.TauRelax          100.0000000     fs     # Default value
MD.BulkModulus          100.0000000         # Default value
MD.FCDispl         0.4000000000E-01 Bohr     # Default value
MD.FCfirst              1     # Default value
MD.FClast              4     # Default value
Harris_functional              F     # Default value
WriteEDM              F     # Default value
WriteKpoints              F     # Default value
WriteForces              F     # Default value
WriteDM              T     # Default value
WriteEigenvalues              F     # Default value
WriteBands              F     # Default value
WriteKbands              F     # Default value
WriteCoorStep              F     # Default value
WriteCoorInitial              T     # Default value
WriteMDhistory              F     # Default value
WriteMDXmol              T     # Default value
UseSaveData              F     # Default value
MD.UseSaveXV              F     # Default value
MD.UseSaveNEB              T
NEB.SkipEdge              T
SaveHS              F     # Default value
FixAuxillaryCell              F     # Default value
ReInitialiseDM              F     # Default value
SignatureRecords              F     # Default value
MullikenInSCF              F     # Default value
BuildSuperCell              F     # Default value
ReadKPIN              F     # Default value
WriteSpinSCF              F     # Default value
WarningMinimumAtomicDistance          1.000000000     Bohr     # Default value
SpinTorque              F     # Default value
RotateSpin.Theta          0.000000000         # Default value
RotateSpin.Phi          0.000000000         # Default value
MD.Kspring         0.2000000000E-01
MD.IndexOfNEB                        2
NEB.UseBroyden              T
MD.Broyden.History.Steps              5     # Default value
MD.Broyden.Cycle.On.Maxit              T
MD.Broyden.Variable.Weight              F     # Default value
MD.Broyden.Debug              F     # Default value
MD.Broyden.Initial.Inverse.Jacobian          1.000000000         # Default value
MD.LengthTimeStep         0.2400000000     fs     # Default value
SystemLabel     H2CO                                                                                                                                
RcSpatial          0.000000000     Bohr     # Default value
processorY              1     # Default value
blocksize              8     # Default value
kgrid_cutoff          0.000000000     Bohr     # Default value
LongOutput              F     # Default value
WriteWaveFunctions              F     # Default value
EMTransport              F     # Default value
NEnergReal           6000     # Default value
NenergImCircle             15     # Default value
NenergImLine             20     # Default value
NPoles              5     # Default value
VInitial          0.000000000     Ry     # Default value
VFinal         0.1000000000     Ry     # Default value
NIVPoints             10     # Default value
Delta         0.1000000000E-03     # Default value
EnergLowestBound         -5.000000000     Ry     # Default value
SpinConfLeads              0     # Default value
AtomLeftVcte              1     # Default value
AtomRightVcte              4     # Default value
NSlices              1     # Default value
TrCoefficients              F     # Default value
SetBulkTransvCell              F     # Default value
Sigma.DSigmaDE              F     # Default value
BulkTransvCellSize              3     # Default value
MixHamiltonian              T     # Default value
ReadHamiltonian              T     # Default value
FullRamp              T     # Default value
NumberLinearMix              1     # Default value
SkipLastIter              F     # Default value
CB.WriteComplexBands              F     # Default value
CB.MaxKappa          0.000000000         # Default value
NTransmPoints            100     # Default value
InitTransmRange         -5.000000000     Ry     # Default value
FinalTransmRange          5.000000000     Ry     # Default value
VGate          0.000000000     Ry     # Default value
ZVGateR          0.000000000     Bohr     # Default value
ZVGateL          0.000000000     Bohr     # Default value
ZBroadeningG          1.000000000     Bohr     # Default value
BulkTransport              F     # Default value
InitTransport              F     # Default value
BulkLead     LR     # Default value
Sigma.InvertH1              F     # Default value
Sigma.InvertV              F     # Default value
Sigma.CSVD              F     # Default value
Sigma.Dkimag         0.1000000000E-05     # Default value
Sigma.DSVDMax         0.5000000000E-11     # Default value
Sigma.DSVDMin         0.1000000000E-14     # Default value
Sigma.DMax         0.1000000000E-04     # Default value
Sigma.RNoise          1.000000000         # Default value
Sigma.SkipSVD          1000.000000         # Default value
Sigma.ComplexBands              F     # Default value
Sigma.SVDTolZero          0.000000000         # Default value
Sigma.DOSVV              F     # Default value
TRC.LeadsDOS              F     # Default value
TRC.LeadsPDOS              F     # Default value
EM.LDOS              F     # Default value
EM.LDOS2              F     # Default value
TRC.EMDOS              F     # Default value
TRC.EMPDOS              F     # Default value
CBS.SubSystem              F     # Default value
CBS.PrintWaveFunction              F     # Default value
EM.OrderN              F     # Default value
EM.Timings              F     # Default value
EM.TimeReversal              T     # Default value
EM.LDOSLeadsProjection              0     # Default value
AtomicCoordinatesFormat     Ang                                                                                                                                 
AtomCoorFormatOut     Ang                        # Default value
LatticeConstant          1.889726878           Bohr
# Above item originally: LatticeConstant          1.000000000     Ang       
LDAUForces              T     # Default value
LDAU.units          1.000000000     Ry     # Default value
Print_ldau              T     # Default value
LDAU_METHOD              1     # Default value
xc.functional     GGA                                                                                                                                 
xc.authors     PBE                                                                                                                                 
Harris_functional              F     # Default value
DeltaWorkfunction          0.000000000     Ry     # Default value
WriteVNA              F     # Default value
LatticeConstant          1.889726878           Bohr
# Above item originally: LatticeConstant          1.000000000     Ang       

%block LatticeVectors                                                          
 15.000000   0.000000   0.000000                                               
  0.000000  15.000000   0.000000                                               
  0.000000   0.000000  15.000000                                               
%endblock LatticeVectors                                                       
 

%block LatticeVectors                                                          
 15.000000   0.000000   0.000000                                               
  0.000000  15.000000   0.000000                                               
  0.000000   0.000000  15.000000                                               
%endblock LatticeVectors                                                       
 
DirectPhi              F     # Default value
HartreeLeadsLeft          0.000000000     Bohr     # Default value
HartreeLeadsRight          0.000000000     Bohr     # Default value
HartreeLeadsBottom          0.000000000     Ry     # Default value
ParallelOverK              F     # Default value
LatticeConstant          1.889726878           Bohr
# Above item originally: LatticeConstant          1.000000000     Ang       

%block LatticeVectors                                                          
 15.000000   0.000000   0.000000                                               
  0.000000  15.000000   0.000000                                               
  0.000000   0.000000  15.000000                                               
%endblock LatticeVectors                                                       
 

%block LatticeVectors                                                          
 15.000000   0.000000   0.000000                                               
  0.000000  15.000000   0.000000                                               
  0.000000   0.000000  15.000000                                               
%endblock LatticeVectors                                                       
 
SingleExcitation              F     # Default value
OccupationFunction     FD                                                                                                                                  
OccupationFunction     FD                                                                                                                                  
SystemLabel     H2CO                                                                                                                                
LatticeConstant          1.889726878           Bohr
# Above item originally: LatticeConstant          1.000000000     Ang       

%block LatticeVectors                                                          
 15.000000   0.000000   0.000000                                               
  0.000000  15.000000   0.000000                                               
  0.000000   0.000000  15.000000                                               
%endblock LatticeVectors                                                       
 

%block LatticeVectors                                                          
 15.000000   0.000000   0.000000                                               
  0.000000  15.000000   0.000000                                               
  0.000000   0.000000  15.000000                                               
%endblock LatticeVectors                                                       
 
LatticeConstant          1.889726878           Bohr
# Above item originally: LatticeConstant          1.000000000     Ang       

%block LatticeVectors                                                          
 15.000000   0.000000   0.000000                                               
  0.000000  15.000000   0.000000                                               
  0.000000   0.000000  15.000000                                               
%endblock LatticeVectors                                                       
 

%block LatticeVectors                                                          
 15.000000   0.000000   0.000000                                               
  0.000000  15.000000   0.000000                                               
  0.000000   0.000000  15.000000                                               
%endblock LatticeVectors                                                       
 
LatticeConstant          1.889726878           Bohr
# Above item originally: LatticeConstant          1.000000000     Ang       

%block LatticeVectors                                                          
 15.000000   0.000000   0.000000                                               
  0.000000  15.000000   0.000000                                               
  0.000000   0.000000  15.000000                                               
%endblock LatticeVectors                                                       
 

%block LatticeVectors                                                          
 15.000000   0.000000   0.000000                                               
  0.000000  15.000000   0.000000                                               
  0.000000   0.000000  15.000000                                               
%endblock LatticeVectors                                                       
 
LatticeConstant          1.889726878           Bohr
# Above item originally: LatticeConstant          1.000000000     Ang       

%block LatticeVectors                                                          
 15.000000   0.000000   0.000000                                               
  0.000000  15.000000   0.000000                                               
  0.000000   0.000000  15.000000                                               
%endblock LatticeVectors                                                       
 

%block LatticeVectors                                                          
 15.000000   0.000000   0.000000                                               
  0.000000  15.000000   0.000000                                               
  0.000000   0.000000  15.000000                                               
%endblock LatticeVectors                                                       
 
LatticeConstant          1.889726878           Bohr
# Above item originally: LatticeConstant          1.000000000     Ang       

%block LatticeVectors                                                          
 15.000000   0.000000   0.000000                                               
  0.000000  15.000000   0.000000                                               
  0.000000   0.000000  15.000000                                               
%endblock LatticeVectors                                                       
 

%block LatticeVectors                                                          
 15.000000   0.000000   0.000000                                               
  0.000000  15.000000   0.000000                                               
  0.000000   0.000000  15.000000                                               
%endblock LatticeVectors                                                       
 
LatticeConstant          1.889726878           Bohr
# Above item originally: LatticeConstant          1.000000000     Ang       

%block LatticeVectors                                                          
 15.000000   0.000000   0.000000                                               
  0.000000  15.000000   0.000000                                               
  0.000000   0.000000  15.000000                                               
%endblock LatticeVectors                                                       
 

%block LatticeVectors                                                          
 15.000000   0.000000   0.000000                                               
  0.000000  15.000000   0.000000                                               
  0.000000   0.000000  15.000000                                               
%endblock LatticeVectors                                                       
 
LatticeConstant          1.889726878           Bohr
# Above item originally: LatticeConstant          1.000000000     Ang       

%block LatticeVectors                                                          
 15.000000   0.000000   0.000000                                               
  0.000000  15.000000   0.000000                                               
  0.000000   0.000000  15.000000                                               
%endblock LatticeVectors                                                       
 

%block LatticeVectors                                                          
 15.000000   0.000000   0.000000                                               
  0.000000  15.000000   0.000000                                               
  0.000000   0.000000  15.000000                                               
%endblock LatticeVectors                                                       
 
LatticeConstant          1.889726878           Bohr
# Above item originally: LatticeConstant          1.000000000     Ang       

%block LatticeVectors                                                          
 15.000000   0.000000   0.000000                                               
  0.000000  15.000000   0.000000                                               
  0.000000   0.000000  15.000000                                               
%endblock LatticeVectors                                                       
 

%block LatticeVectors                                                          
 15.000000   0.000000   0.000000                                               
  0.000000  15.000000   0.000000                                               
  0.000000   0.000000  15.000000                                               
%endblock LatticeVectors                                                       
 
LatticeConstant          1.889726878           Bohr
# Above item originally: LatticeConstant          1.000000000     Ang       

%block LatticeVectors                                                          
 15.000000   0.000000   0.000000                                               
  0.000000  15.000000   0.000000                                               
  0.000000   0.000000  15.000000                                               
%endblock LatticeVectors                                                       
 

%block LatticeVectors                                                          
 15.000000   0.000000   0.000000                                               
  0.000000  15.000000   0.000000                                               
  0.000000   0.000000  15.000000                                               
%endblock LatticeVectors                                                       
 
LatticeConstant          1.889726878           Bohr
# Above item originally: LatticeConstant          1.000000000     Ang       

%block LatticeVectors                                                          
 15.000000   0.000000   0.000000                                               
  0.000000  15.000000   0.000000                                               
  0.000000   0.000000  15.000000                                               
%endblock LatticeVectors                                                       
 

%block LatticeVectors                                                          
 15.000000   0.000000   0.000000                                               
  0.000000  15.000000   0.000000                                               
  0.000000   0.000000  15.000000                                               
%endblock LatticeVectors                                                       
 
LatticeConstant          1.889726878           Bohr
# Above item originally: LatticeConstant          1.000000000     Ang       

%block LatticeVectors                                                          
 15.000000   0.000000   0.000000                                               
  0.000000  15.000000   0.000000                                               
  0.000000   0.000000  15.000000                                               
%endblock LatticeVectors                                                       
 

%block LatticeVectors                                                          
 15.000000   0.000000   0.000000                                               
  0.000000  15.000000   0.000000                                               
  0.000000   0.000000  15.000000                                               
%endblock LatticeVectors                                                       
 
LatticeConstant          1.889726878           Bohr
# Above item originally: LatticeConstant          1.000000000     Ang       

%block LatticeVectors                                                          
 15.000000   0.000000   0.000000                                               
  0.000000  15.000000   0.000000                                               
  0.000000   0.000000  15.000000                                               
%endblock LatticeVectors                                                       
 

%block LatticeVectors                                                          
 15.000000   0.000000   0.000000                                               
  0.000000  15.000000   0.000000                                               
  0.000000   0.000000  15.000000                                               
%endblock LatticeVectors                                                       
 
LatticeConstant          1.889726878           Bohr
# Above item originally: LatticeConstant          1.000000000     Ang       

%block LatticeVectors                                                          
 15.000000   0.000000   0.000000                                               
  0.000000  15.000000   0.000000                                               
  0.000000   0.000000  15.000000                                               