 # Version information for this restart file 
 # current date 2023-02-22 11:09:00.181
 # current working dir /work4/scd/scarf1157/work/testing/cp2k-smeagol/bdt/cp2k/hollow-site/transport-cp2k/5-4/geometry-ordered/3x3-4/sz/bulk_layers-4/geo_opt/dzvp/Au-S-2.65_dft
 # Program compiled at                              Thu 26 Jan 13:39:53 GMT 2023
 # Program compiled on                                     cn1108.scarf.rl.ac.uk
 # Program compiled for                                                    local
 # Source code revision number                                       git:1ef701d
 &GLOBAL
   EXTENDED_FFT_LENGTHS  T
   PRINT_LEVEL  MEDIUM
   PROJECT_NAME dft_wfn
   RUN_TYPE  GEO_OPT
 &END GLOBAL
 &MOTION
   &GEO_OPT
     OPTIMIZER  BFGS
     MAX_ITER  1000
     STEP_START_VAL  9
   &END GEO_OPT
   &CONSTRAINT
     &FIXED_ATOMS
       LIST  1..40 76..116
     &END FIXED_ATOMS
   &END CONSTRAINT
   &PRINT
     &TRAJECTORY  ON
       FORMAT  XMOL
     &END TRAJECTORY
   &END PRINT
 &END MOTION
 &FORCE_EVAL
   METHOD  QS
   &DFT
     BASIS_SET_FILE_NAME BASIS_MOLOPT
     POTENTIAL_FILE_NAME GTH_POTENTIALS
     &SCF
       MAX_SCF  100
       EPS_SCF     9.9999999999999995E-08
       SCF_GUESS  ATOMIC
       ADDED_MOS  100
       &SMEAR  T
         METHOD  FERMI_DIRAC
         ELECTRONIC_TEMPERATURE     2.9300000000000000E+02
       &END SMEAR
       &MIXING  T
         METHOD  BROYDEN_MIXING
         ALPHA     2.9999999999999999E-01
         NBUFFER  8
       &END MIXING
       &PRINT
         &RESTART  SILENT
           FILENAME RESTART_0
         &END RESTART
       &END PRINT
     &END SCF
     &MGRID
       CUTOFF     4.0000000000000000E+02
     &END MGRID
     &XC
       DENSITY_CUTOFF     1.0000000000000000E-10
       GRADIENT_CUTOFF     1.0000000000000000E-10
       TAU_CUTOFF     1.0000000000000000E-10
       &XC_FUNCTIONAL  NO_SHORTCUT
         &PADE  T
         &END PADE
       &END XC_FUNCTIONAL
     &END XC
     &POISSON
       PERIODIC  XYZ
     &END POISSON
     &KPOINTS
       SCHEME MONKHORST-PACK 2 2 1
       SYMMETRY  F
       FULL_GRID  T
       VERBOSE  T
       EPS_GEO     1.0000000000000000E-08
       PARALLEL_GROUP_SIZE  0
     &END KPOINTS
     &PRINT
       &E_DENSITY_CUBE  ON
         STRIDE  2 2 2
       &END E_DENSITY_CUBE
       &V_HARTREE_CUBE  SILENT
         STRIDE  2 2 2
       &END V_HARTREE_CUBE
       &HIRSHFELD  SILENT
         SHAPE_FUNCTION  DENSITY
       &END HIRSHFELD
     &END PRINT
   &END DFT
   &SUBSYS
     &CELL
       A     8.2919999999999998E+00    0.0000000000000000E+00    0.0000000000000000E+00
       B     0.0000000000000000E+00    8.2919999999999998E+00    0.0000000000000000E+00
       C     0.0000000000000000E+00    0.0000000000000000E+00    3.4524000000000001E+01
       PERIODIC  XYZ
       MULTIPLE_UNIT_CELL  1 1 1
     &END CELL
     &COORD
Au    0.0000000000000000E+00    0.0000000000000000E+00    0.0000000000000000E+00
Au    0.0000000000000000E+00    4.1459999999999999E+00    0.0000000000000000E+00
Au    2.0730000000000000E+00    2.0730000000000000E+00    0.0000000000000000E+00
Au    2.0730000000000000E+00    6.2190000000000012E+00    0.0000000000000000E+00
Au    4.1459999999999999E+00    0.0000000000000000E+00    0.0000000000000000E+00
Au    4.1459999999999999E+00    4.1459999999999999E+00    0.0000000000000000E+00
Au    6.2190000000000012E+00    2.0730000000000000E+00    0.0000000000000000E+00
Au    6.2190000000000012E+00    6.2190000000000012E+00    0.0000000000000000E+00
Au    0.0000000000000000E+00    2.0730000000000000E+00    2.0730000000000000E+00
Au    0.0000000000000000E+00    6.2190000000000012E+00    2.0730000000000000E+00
Au    2.0730000000000000E+00    0.0000000000000000E+00    2.0730000000000000E+00
Au    2.0730000000000000E+00    4.1459999999999999E+00    2.0730000000000000E+00
Au    4.1459999999999999E+00    2.0730000000000000E+00    2.0730000000000000E+00
Au    4.1459999999999999E+00    6.2190000000000012E+00    2.0730000000000000E+00
Au    6.2190000000000012E+00    0.0000000000000000E+00    2.0730000000000000E+00
Au    6.2190000000000012E+00    4.1459999999999999E+00    2.0730000000000000E+00
Au    0.0000000000000000E+00    0.0000000000000000E+00    4.1459999999999999E+00
Au    0.0000000000000000E+00    4.1459999999999999E+00    4.1459999999999999E+00
Au    2.0730000000000000E+00    2.0730000000000000E+00    4.1459999999999999E+00
Au    2.0730000000000000E+00    6.2190000000000012E+00    4.1459999999999999E+00
Au    4.1459999999999999E+00    0.0000000000000000E+00    4.1459999999999999E+00
Au    4.1459999999999999E+00    4.1459999999999999E+00    4.1459999999999999E+00
Au    6.2190000000000012E+00    2.0730000000000000E+00    4.1459999999999999E+00
Au    6.2190000000000012E+00    6.2190000000000012E+00    4.1459999999999999E+00
Au    0.0000000000000000E+00    2.0730000000000000E+00    6.2190000000000012E+00
Au    0.0000000000000000E+00    6.2190000000000012E+00    6.2190000000000012E+00
Au    2.0730000000000000E+00    0.0000000000000000E+00    6.2190000000000012E+00
Au    2.0730000000000000E+00    4.1459999999999999E+00    6.2190000000000012E+00
Au    4.1459999999999999E+00    2.0730000000000000E+00    6.2190000000000012E+00
Au    4.1459999999999999E+00    6.2190000000000012E+00    6.2190000000000012E+00
Au    6.2190000000000012E+00    0.0000000000000000E+00    6.2190000000000012E+00
Au    6.2190000000000012E+00    4.1459999999999999E+00    6.2190000000000012E+00
Au    0.0000000000000000E+00    0.0000000000000000E+00    8.2919999999999998E+00
Au    0.0000000000000000E+00    4.1459999999999999E+00    8.2919999999999998E+00
Au    2.0730000000000000E+00    2.0730000000000000E+00    8.2919999999999998E+00
Au    2.0730000000000000E+00    6.2190000000000012E+00    8.2919999999999998E+00
Au    4.1459999999999999E+00    0.0000000000000000E+00    8.2919999999999998E+00
Au    4.1459999999999999E+00    4.1459999999999999E+00    8.2919999999999998E+00
Au    6.2190000000000012E+00    2.0730000000000000E+00    8.2919999999999998E+00
Au    6.2190000000000012E+00    6.2190000000000012E+00    8.2919999999999998E+00
Au    2.6282506026097319E-04    2.0731343106907945E+00    1.0405441315408249E+01
Au   -3.9957057377449219E-06    6.2180474146294467E+00    1.0340402206985786E+01
Au    2.0867076518779197E+00    2.4556537939015403E-02    1.0384253870657263E+01
Au    2.0874691814840824E+00    4.1205486483000904E+00    1.0386734789977851E+01
Au    4.1460147311875408E+00    2.0738653090780823E+00    1.0405048480079653E+01
Au    4.1461065788748712E+00    6.2178411193064438E+00    1.0376763999633630E+01
Au    6.2054934431518003E+00    2.4480149767202097E-02    1.0384293739569264E+01
Au    6.2047295987361846E+00    4.1206225957172151E+00    1.0386779511643546E+01
Au    6.5548911623621079E-06   -3.8661982697642261E-02    1.2468346683975092E+01
Au    1.2490901183710391E-05    4.1834572597353796E+00    1.2467980142310935E+01
Au    1.9689929240341368E+00    2.0698468289398515E+00    1.2542978726715951E+01
Au    2.0237435054112138E+00    6.2206417081905858E+00    1.2456275405863781E+01
Au    4.1463845386481530E+00   -1.1753685515100444E-01    1.2495038196101042E+01
Au    4.1463886949376079E+00    4.2702018115069791E+00    1.2501223699457025E+01
Au    6.3232299290504894E+00    2.0698519693753945E+00    1.2542611085886760E+01
Au    6.2683610394333229E+00    6.2206523730319194E+00    1.2457066705878992E+01
S    4.1449952546705333E+00    2.0866040668077379E+00    1.4095132196448994E+01
C    4.1429702643293824E+00    2.0825748656351832E+00    1.5865343008812458E+01
H    1.9958198187837337E+00    2.0807068099608377E+00    1.6018004367699419E+01
H    6.2899597988968869E+00    2.0805695398281436E+00    1.6023793789471480E+01
C    2.9372729376227693E+00    2.0773930927787281E+00    1.6569629788700013E+01
C    5.3469126270674652E+00    2.0772960590130856E+00    1.6572659502486008E+01
C    2.9355774906832548E+00    2.0684010602716705E+00    1.7953376314732367E+01
C    5.3448723043740660E+00    2.0682811326991613E+00    1.7956351714307836E+01
H    1.9919831675574582E+00    2.0644661997124079E+00    1.8501097920126178E+01
H    6.2867605264186377E+00    2.0642741004213461E+00    1.8506928689878762E+01
C    4.1393575930733455E+00    2.0636031574173108E+00    1.8661583688235460E+01
S    4.1386080361486179E+00    2.0602969438643708E+00    2.0433281245509075E+01
Au   -1.0544724795245547E-02   -3.4544067615748450E-02    2.2062387204954071E+01
Au   -1.1355646992085041E-02    4.1819137466389851E+00    2.2061038508399736E+01
Au    1.9600212093246363E+00    2.0752837345773965E+00    2.2024177200006083E+01
Au    2.0258097535121684E+00    6.2171074485707951E+00    2.2057933193718416E+01
Au    4.1267923641337214E+00   -9.8987695173244142E-02    2.2050746589654420E+01
Au    4.1282305303705353E+00    4.2388934223770960E+00    2.2054108911895465E+01
Au    6.3129378895173449E+00    2.0750176399526019E+00    2.2027710151821342E+01
Au    6.2190000000000012E+00    6.2190000000000012E+00    2.2085999999999999E+01
Au    0.0000000000000000E+00    2.0730000000000000E+00    2.4159000000000002E+01
Au    0.0000000000000000E+00    6.2190000000000012E+00    2.4159000000000002E+01
Au    2.0730000000000000E+00    0.0000000000000000E+00    2.4159000000000002E+01
Au    2.0730000000000000E+00    4.1459999999999999E+00    2.4159000000000002E+01
Au    4.1459999999999999E+00    2.0730000000000000E+00    2.4159000000000002E+01
Au    4.1459999999999999E+00    6.2190000000000012E+00    2.4159000000000002E+01
Au    6.2190000000000012E+00    0.0000000000000000E+00    2.4159000000000002E+01
Au    6.2190000000000012E+00    4.1459999999999999E+00    2.4159000000000002E+01
Au    0.0000000000000000E+00    0.0000000000000000E+00    2.6231999999999999E+01
Au    0.0000000000000000E+00    4.1459999999999999E+00    2.6231999999999999E+01
Au    2.0730000000000000E+00    2.0730000000000000E+00    2.6231999999999999E+01
Au    2.0730000000000000E+00    6.2190000000000012E+00    2.6231999999999999E+01
Au    4.1459999999999999E+00    0.0000000000000000E+00    2.6231999999999999E+01
Au    4.1459999999999999E+00    4.1459999999999999E+00    2.6231999999999999E+01
Au    6.2190000000000012E+00    2.0730000000000000E+00    2.6231999999999999E+01
Au    6.2190000000000012E+00    6.2190000000000012E+00    2.6231999999999999E+01
Au    0.0000000000000000E+00    2.0730000000000000E+00    2.8305000000000003E+01
Au    0.0000000000000000E+00    6.2190000000000012E+00    2.8305000000000003E+01
Au    2.0730000000000000E+00    0.0000000000000000E+00    2.8305000000000003E+01
Au    2.0730000000000000E+00    4.1459999999999999E+00    2.8305000000000003E+01
Au    4.1459999999999999E+00    2.0730000000000000E+00    2.8305000000000003E+01
Au    4.1459999999999999E+00    6.2190000000000012E+00    2.8305000000000003E+01
Au    6.2190000000000012E+00    0.0000000000000000E+00    2.8305000000000003E+01
Au    6.2190000000000012E+00    4.1459999999999999E+00    2.8305000000000003E+01
Au    0.0000000000000000E+00    0.0000000000000000E+00    3.0378000000000000E+01
Au    0.0000000000000000E+00    4.1459999999999999E+00    3.0378000000000000E+01
Au    2.0730000000000000E+00    2.0730000000000000E+00    3.0378000000000000E+01
Au    2.0730000000000000E+00    6.2190000000000012E+00    3.0378000000000000E+01
Au    4.1459999999999999E+00    0.0000000000000000E+00    3.0378000000000000E+01
Au    4.1459999999999999E+00    4.1459999999999999E+00    3.0378000000000000E+01
Au    6.2190000000000012E+00    2.0730000000000000E+00    3.0378000000000000E+01
Au    6.2190000000000012E+00    6.2190000000000012E+00    3.0378000000000000E+01
Au    0.0000000000000000E+00    2.0730000000000000E+00    3.2451000000000001E+01
Au    0.0000000000000000E+00    6.2190000000000012E+00    3.2451000000000001E+01
Au    2.0730000000000000E+00    0.0000000000000000E+00    3.2451000000000001E+01
Au    2.0730000000000000E+00    4.1459999999999999E+00    3.2451000000000001E+01
Au    4.1459999999999999E+00    2.0730000000000000E+00    3.2451000000000001E+01
Au    4.1459999999999999E+00    6.2190000000000012E+00    3.2451000000000001E+01
Au    6.2190000000000012E+00    0.0000000000000000E+00    3.2451000000000001E+01
Au    6.2190000000000012E+00    4.1459999999999999E+00    3.2451000000000001E+01
     &END COORD
     &KIND Au
       BASIS_SET SZV-MOLOPT-SR-GTH
       POTENTIAL GTH-PADE-q11
       &POTENTIAL
 1 0 10
  0.5900000000000000E+00 1  0.1160442790000000E+02
 3
  0.5211797500000001E+00 2  0.2538613590000000E+01 -0.1046136640000000E+01
  0.2701113200000000E+01
  0.6306130599999999E+00 2  0.3948527000000000E+00 -0.8695921300000000E+00
  0.2057830560000000E+01
  0.4407064300000000E+00 2 -0.4719069660000000E+01  0.7277708100000000E+00
 -0.1650429070000000E+01
         # Potential name:  GTH-PADE-Q11  for symbol:  AU
         # Potential read from the potential filename: GTH_POTENTIALS
       &END POTENTIAL
     &END KIND
     &KIND C
       BASIS_SET DZVP-MOLOPT-SR-GTH
       ELEMENT C
       POTENTIAL GTH-PADE-q4
       &POTENTIAL
 2 2
  0.3488304500000000E+00 2 -0.8513771100000000E+01  0.1228432030000000E+01
 2
  0.3045532100000000E+00 1  0.9522841789999999E+01
  0.2326773000000000E+00 0
         # Potential name:  GTH-PADE-Q4  for symbol:  C
         # Potential read from the potential filename: GTH_POTENTIALS
       &END POTENTIAL
     &END KIND
     &KIND S
       BASIS_SET DZVP-MOLOPT-SR-GTH
       ELEMENT S
       POTENTIAL GTH-PADE-q6
       &POTENTIAL
 2 4
  0.4200000000000000E+00 1 -0.6554491840000000E+01
 2
  0.3617566500000000E+00 2  0.7905302500000000E+01 -0.1731881300000000E+01
  0.4471698300000000E+01
  0.4052850200000000E+00 1  0.3866579000000000E+01
         # Potential name:  GTH-PADE-Q6  for symbol:  S
         # Potential read from the potential filename: GTH_POTENTIALS
       &END POTENTIAL
     &END KIND
     &KIND H
       BASIS_SET DZVP-MOLOPT-SR-GTH
       ELEMENT H
       POTENTIAL GTH-PADE-q1
       &POTENTIAL
 1
  0.2000000000000000E+00 2 -0.4180236800000000E+01  0.7250748200000000E+00
 0
         # Potential name:  GTH-PADE-Q1  for symbol:  H
         # Potential read from the potential filename: GTH_POTENTIALS
       &END POTENTIAL
     &END KIND
     &TOPOLOGY
       COORD_FILE_NAME em.xyz
       COORD_FILE_FORMAT  XYZ
       NUMBER_OF_ATOMS  116
       MULTIPLE_UNIT_CELL  1 1 1
     &END TOPOLOGY
   &END SUBSYS
 &END FORCE_EVAL
