 # Version information for this restart file 
 # current date 2023-02-22 11:11:03.051
 # current working dir /work4/scd/scarf1157/work/testing/cp2k-smeagol/bdt/cp2k/hollow-site/transport-cp2k/5-4/geometry-ordered/3x3-4/sz/bulk_layers-4/geo_opt/dzvp/Au-S-2.7_dft
 # Program compiled at                              Thu 26 Jan 13:39:53 GMT 2023
 # Program compiled on                                     cn1108.scarf.rl.ac.uk
 # Program compiled for                                                    local
 # Source code revision number                                       git:1ef701d
 &GLOBAL
   EXTENDED_FFT_LENGTHS  T
   PRINT_LEVEL  MEDIUM
   PROJECT_NAME dft_wfn
   RUN_TYPE  GEO_OPT
 &END GLOBAL
 &MOTION
   &GEO_OPT
     OPTIMIZER  BFGS
     MAX_ITER  1000
     STEP_START_VAL  10
   &END GEO_OPT
   &CONSTRAINT
     &FIXED_ATOMS
       LIST  1..40 76..116
     &END FIXED_ATOMS
   &END CONSTRAINT
   &PRINT
     &TRAJECTORY  ON
       FORMAT  XMOL
     &END TRAJECTORY
   &END PRINT
 &END MOTION
 &FORCE_EVAL
   METHOD  QS
   &DFT
     BASIS_SET_FILE_NAME BASIS_MOLOPT
     POTENTIAL_FILE_NAME GTH_POTENTIALS
     &SCF
       MAX_SCF  100
       EPS_SCF     9.9999999999999995E-08
       SCF_GUESS  ATOMIC
       ADDED_MOS  100
       &SMEAR  T
         METHOD  FERMI_DIRAC
         ELECTRONIC_TEMPERATURE     2.9300000000000000E+02
       &END SMEAR
       &MIXING  T
         METHOD  BROYDEN_MIXING
         ALPHA     2.9999999999999999E-01
         NBUFFER  8
       &END MIXING
       &PRINT
         &RESTART  SILENT
           FILENAME RESTART_0
         &END RESTART
       &END PRINT
     &END SCF
     &MGRID
       CUTOFF     4.0000000000000000E+02
     &END MGRID
     &XC
       DENSITY_CUTOFF     1.0000000000000000E-10
       GRADIENT_CUTOFF     1.0000000000000000E-10
       TAU_CUTOFF     1.0000000000000000E-10
       &XC_FUNCTIONAL  NO_SHORTCUT
         &PADE  T
         &END PADE
       &END XC_FUNCTIONAL
     &END XC
     &POISSON
       PERIODIC  XYZ
     &END POISSON
     &KPOINTS
       SCHEME MONKHORST-PACK 2 2 1
       SYMMETRY  F
       FULL_GRID  T
       VERBOSE  T
       EPS_GEO     1.0000000000000000E-08
       PARALLEL_GROUP_SIZE  0
     &END KPOINTS
     &PRINT
       &E_DENSITY_CUBE  ON
         STRIDE  2 2 2
       &END E_DENSITY_CUBE
       &V_HARTREE_CUBE  SILENT
         STRIDE  2 2 2
       &END V_HARTREE_CUBE
       &HIRSHFELD  SILENT
         SHAPE_FUNCTION  DENSITY
       &END HIRSHFELD
     &END PRINT
   &END DFT
   &SUBSYS
     &CELL
       A     8.2919999999999998E+00    0.0000000000000000E+00    0.0000000000000000E+00
       B     0.0000000000000000E+00    8.2919999999999998E+00    0.0000000000000000E+00
       C     0.0000000000000000E+00    0.0000000000000000E+00    3.4683000000000007E+01
       PERIODIC  XYZ
       MULTIPLE_UNIT_CELL  1 1 1
     &END CELL
     &COORD
Au    0.0000000000000000E+00    0.0000000000000000E+00    0.0000000000000000E+00
Au    0.0000000000000000E+00    4.1459999999999999E+00    0.0000000000000000E+00
Au    2.0730000000000000E+00    2.0730000000000000E+00    0.0000000000000000E+00
Au    2.0730000000000000E+00    6.2190000000000012E+00    0.0000000000000000E+00
Au    4.1459999999999999E+00    0.0000000000000000E+00    0.0000000000000000E+00
Au    4.1459999999999999E+00    4.1459999999999999E+00    0.0000000000000000E+00
Au    6.2190000000000012E+00    2.0730000000000000E+00    0.0000000000000000E+00
Au    6.2190000000000012E+00    6.2190000000000012E+00    0.0000000000000000E+00
Au    0.0000000000000000E+00    2.0730000000000000E+00    2.0730000000000000E+00
Au    0.0000000000000000E+00    6.2190000000000012E+00    2.0730000000000000E+00
Au    2.0730000000000000E+00    0.0000000000000000E+00    2.0730000000000000E+00
Au    2.0730000000000000E+00    4.1459999999999999E+00    2.0730000000000000E+00
Au    4.1459999999999999E+00    2.0730000000000000E+00    2.0730000000000000E+00
Au    4.1459999999999999E+00    6.2190000000000012E+00    2.0730000000000000E+00
Au    6.2190000000000012E+00    0.0000000000000000E+00    2.0730000000000000E+00
Au    6.2190000000000012E+00    4.1459999999999999E+00    2.0730000000000000E+00
Au    0.0000000000000000E+00    0.0000000000000000E+00    4.1459999999999999E+00
Au    0.0000000000000000E+00    4.1459999999999999E+00    4.1459999999999999E+00
Au    2.0730000000000000E+00    2.0730000000000000E+00    4.1459999999999999E+00
Au    2.0730000000000000E+00    6.2190000000000012E+00    4.1459999999999999E+00
Au    4.1459999999999999E+00    0.0000000000000000E+00    4.1459999999999999E+00
Au    4.1459999999999999E+00    4.1459999999999999E+00    4.1459999999999999E+00
Au    6.2190000000000012E+00    2.0730000000000000E+00    4.1459999999999999E+00
Au    6.2190000000000012E+00    6.2190000000000012E+00    4.1459999999999999E+00
Au    0.0000000000000000E+00    2.0730000000000000E+00    6.2190000000000012E+00
Au    0.0000000000000000E+00    6.2190000000000012E+00    6.2190000000000012E+00
Au    2.0730000000000000E+00    0.0000000000000000E+00    6.2190000000000012E+00
Au    2.0730000000000000E+00    4.1459999999999999E+00    6.2190000000000012E+00
Au    4.1459999999999999E+00    2.0730000000000000E+00    6.2190000000000012E+00
Au    4.1459999999999999E+00    6.2190000000000012E+00    6.2190000000000012E+00
Au    6.2190000000000012E+00    0.0000000000000000E+00    6.2190000000000012E+00
Au    6.2190000000000012E+00    4.1459999999999999E+00    6.2190000000000012E+00
Au    0.0000000000000000E+00    0.0000000000000000E+00    8.2919999999999998E+00
Au    0.0000000000000000E+00    4.1459999999999999E+00    8.2919999999999998E+00
Au    2.0730000000000000E+00    2.0730000000000000E+00    8.2919999999999998E+00
Au    2.0730000000000000E+00    6.2190000000000012E+00    8.2919999999999998E+00
Au    4.1459999999999999E+00    0.0000000000000000E+00    8.2919999999999998E+00
Au    4.1459999999999999E+00    4.1459999999999999E+00    8.2919999999999998E+00
Au    6.2190000000000012E+00    2.0730000000000000E+00    8.2919999999999998E+00
Au    6.2190000000000012E+00    6.2190000000000012E+00    8.2919999999999998E+00
Au    3.4277362749613111E-04    2.0732029214429972E+00    1.0410959321546803E+01
Au    8.6898802919071826E-05    6.2180273131869397E+00    1.0342566522814256E+01
Au    2.0871594291980009E+00    2.4832720671243473E-02    1.0385844348501678E+01
Au    2.0879119898224512E+00    4.1203942006294518E+00    1.0388240111940171E+01
Au    4.1460036212485489E+00    2.0738930051159032E+00    1.0413090739518191E+01
Au    4.1460865895255647E+00    6.2177399462930723E+00    1.0383121525209221E+01
Au    6.2050921093354390E+00    2.4781760678793223E-02    1.0385774856926945E+01
Au    6.2043374113255201E+00    4.1204438139113311E+00    1.0388175366508223E+01
Au    2.9592900728116022E-05   -3.4993722394861558E-02    1.2469619993231371E+01
Au    3.4744903432588273E-05    4.1798078652098418E+00    1.2469606044158132E+01
Au    1.9826298083258711E+00    2.0702237391261828E+00    1.2551506058737425E+01
Au    2.0278526436799300E+00    6.2203917086538771E+00    1.2458204349643411E+01
Au    4.1464241632836369E+00   -1.0568526688339094E-01    1.2504871332591122E+01
Au    4.1464295092577972E+00    4.2571968707639236E+00    1.2511271352052967E+01
Au    6.3095631302684723E+00    2.0702275926829752E+00    1.2550887365079163E+01
Au    6.2643315922477791E+00    6.2203998371768874E+00    1.2458575562078677E+01
S    4.1448422837385479E+00    2.0854163574308839E+00    1.4166425191887726E+01
C    4.1428069194558335E+00    2.0818133066683426E+00    1.5940889068868035E+01
H    1.9954930075903397E+00    2.0805563222741053E+00    1.6100802178744932E+01
H    6.2899351049544547E+00    2.0803945196327054E+00    1.6106404496951630E+01
C    2.9385729945487613E+00    2.0774407096236023E+00    1.6649579574208676E+01
C    5.3453436127948164E+00    2.0773275715437105E+00    1.6652570408981806E+01
C    2.9369317522455956E+00    2.0687317313872637E+00    1.8034217665104403E+01
C    5.3433707269393125E+00    2.0686020875619131E+00    1.8037208024518673E+01
H    1.9918546323944979E+00    2.0648351469250636E+00    1.8579203776605247E+01
H    6.2869484552351835E+00    2.0646167391967398E+00    1.8584779289480746E+01
C    4.1392579447053723E+00    2.0646869498060805E+00    1.8746951900211659E+01
S    4.1382930123161801E+00    2.0618464753003449E+00    2.0522834026451477E+01
Au   -9.3511820014571066E-03   -2.8757911968045308E-02    2.2223876428252996E+01
Au   -1.0061806889943752E-02    4.1756761301082355E+00    2.2222790785735796E+01
Au    1.9764357105478236E+00    2.0747887707091692E+00    2.2179160057789346E+01
Au    2.0314974622919371E+00    6.2174413339762689E+00    2.2219727010346489E+01
Au    4.1297212450357561E+00   -8.7059540689294668E-02    2.2203966549917958E+01
Au    4.1309856631491506E+00    4.2282907774024387E+00    2.2207087394136874E+01
Au    6.2984684467473784E+00    2.0744247911408888E+00    2.2182724803690483E+01
Au    6.2190000000000012E+00    6.2190000000000012E+00    2.2245000000000005E+01
Au    0.0000000000000000E+00    2.0730000000000000E+00    2.4318000000000001E+01
Au    0.0000000000000000E+00    6.2190000000000012E+00    2.4318000000000001E+01
Au    2.0730000000000000E+00    0.0000000000000000E+00    2.4318000000000001E+01
Au    2.0730000000000000E+00    4.1459999999999999E+00    2.4318000000000001E+01
Au    4.1459999999999999E+00    2.0730000000000000E+00    2.4318000000000001E+01
Au    4.1459999999999999E+00    6.2190000000000012E+00    2.4318000000000001E+01
Au    6.2190000000000012E+00    0.0000000000000000E+00    2.4318000000000001E+01
Au    6.2190000000000012E+00    4.1459999999999999E+00    2.4318000000000001E+01
Au    0.0000000000000000E+00    0.0000000000000000E+00    2.6391000000000002E+01
Au    0.0000000000000000E+00    4.1459999999999999E+00    2.6391000000000002E+01
Au    2.0730000000000000E+00    2.0730000000000000E+00    2.6391000000000002E+01
Au    2.0730000000000000E+00    6.2190000000000012E+00    2.6391000000000002E+01
Au    4.1459999999999999E+00    0.0000000000000000E+00    2.6391000000000002E+01
Au    4.1459999999999999E+00    4.1459999999999999E+00    2.6391000000000002E+01
Au    6.2190000000000012E+00    2.0730000000000000E+00    2.6391000000000002E+01
Au    6.2190000000000012E+00    6.2190000000000012E+00    2.6391000000000002E+01
Au    0.0000000000000000E+00    2.0730000000000000E+00    2.8464000000000002E+01
Au    0.0000000000000000E+00    6.2190000000000012E+00    2.8464000000000002E+01
Au    2.0730000000000000E+00    0.0000000000000000E+00    2.8464000000000002E+01
Au    2.0730000000000000E+00    4.1459999999999999E+00    2.8464000000000002E+01
Au    4.1459999999999999E+00    2.0730000000000000E+00    2.8464000000000002E+01
Au    4.1459999999999999E+00    6.2190000000000012E+00    2.8464000000000002E+01
Au    6.2190000000000012E+00    0.0000000000000000E+00    2.8464000000000002E+01
Au    6.2190000000000012E+00    4.1459999999999999E+00    2.8464000000000002E+01
Au    0.0000000000000000E+00    0.0000000000000000E+00    3.0536999999999999E+01
Au    0.0000000000000000E+00    4.1459999999999999E+00    3.0536999999999999E+01
Au    2.0730000000000000E+00    2.0730000000000000E+00    3.0536999999999999E+01
Au    2.0730000000000000E+00    6.2190000000000012E+00    3.0536999999999999E+01
Au    4.1459999999999999E+00    0.0000000000000000E+00    3.0536999999999999E+01
Au    4.1459999999999999E+00    4.1459999999999999E+00    3.0536999999999999E+01
Au    6.2190000000000012E+00    2.0730000000000000E+00    3.0536999999999999E+01
Au    6.2190000000000012E+00    6.2190000000000012E+00    3.0536999999999999E+01
Au    0.0000000000000000E+00    2.0730000000000000E+00    3.2609999999999999E+01
Au    0.0000000000000000E+00    6.2190000000000012E+00    3.2609999999999999E+01
Au    2.0730000000000000E+00    0.0000000000000000E+00    3.2609999999999999E+01
Au    2.0730000000000000E+00    4.1459999999999999E+00    3.2609999999999999E+01
Au    4.1459999999999999E+00    2.0730000000000000E+00    3.2609999999999999E+01
Au    4.1459999999999999E+00    6.2190000000000012E+00    3.2609999999999999E+01
Au    6.2190000000000012E+00    0.0000000000000000E+00    3.2609999999999999E+01
Au    6.2190000000000012E+00    4.1459999999999999E+00    3.2609999999999999E+01
     &END COORD
     &KIND Au
       BASIS_SET SZV-MOLOPT-SR-GTH
       POTENTIAL GTH-PADE-q11
       &POTENTIAL
 1 0 10
  0.5900000000000000E+00 1  0.1160442790000000E+02
 3
  0.5211797500000001E+00 2  0.2538613590000000E+01 -0.1046136640000000E+01
  0.2701113200000000E+01
  0.6306130599999999E+00 2  0.3948527000000000E+00 -0.8695921300000000E+00
  0.2057830560000000E+01
  0.4407064300000000E+00 2 -0.4719069660000000E+01  0.7277708100000000E+00
 -0.1650429070000000E+01
         # Potential name:  GTH-PADE-Q11  for symbol:  AU
         # Potential read from the potential filename: GTH_POTENTIALS
       &END POTENTIAL
     &END KIND
     &KIND C
       BASIS_SET DZVP-MOLOPT-SR-GTH
       ELEMENT C
       POTENTIAL GTH-PADE-q4
       &POTENTIAL
 2 2
  0.3488304500000000E+00 2 -0.8513771100000000E+01  0.1228432030000000E+01
 2
  0.3045532100000000E+00 1  0.9522841789999999E+01
  0.2326773000000000E+00 0
         # Potential name:  GTH-PADE-Q4  for symbol:  C
         # Potential read from the potential filename: GTH_POTENTIALS
       &END POTENTIAL
     &END KIND
     &KIND S
       BASIS_SET DZVP-MOLOPT-SR-GTH
       ELEMENT S
       POTENTIAL GTH-PADE-q6
       &POTENTIAL
 2 4
  0.4200000000000000E+00 1 -0.6554491840000000E+01
 2
  0.3617566500000000E+00 2  0.7905302500000000E+01 -0.1731881300000000E+01
  0.4471698300000000E+01
  0.4052850200000000E+00 1  0.3866579000000000E+01
         # Potential name:  GTH-PADE-Q6  for symbol:  S
         # Potential read from the potential filename: GTH_POTENTIALS
       &END POTENTIAL
     &END KIND
     &KIND H
       BASIS_SET DZVP-MOLOPT-SR-GTH
       ELEMENT H
       POTENTIAL GTH-PADE-q1
       &POTENTIAL
 1
  0.2000000000000000E+00 2 -0.4180236800000000E+01  0.7250748200000000E+00
 0
         # Potential name:  GTH-PADE-Q1  for symbol:  H
         # Potential read from the potential filename: GTH_POTENTIALS
       &END POTENTIAL
     &END KIND
     &TOPOLOGY
       COORD_FILE_NAME em.xyz
       COORD_FILE_FORMAT  XYZ
       NUMBER_OF_ATOMS  116
       MULTIPLE_UNIT_CELL  1 1 1
     &END TOPOLOGY
   &END SUBSYS
 &END FORCE_EVAL
