 # Version information for this restart file 
 # current date 2023-02-22 11:09:08.108
 # current working dir /work4/scd/scarf1157/work/testing/cp2k-smeagol/bdt/cp2k/hollow-site/transport-cp2k/5-4/geometry-ordered/3x3-4/sz/bulk_layers-4/geo_opt/dzvp/Au-S-2.55_dft
 # Program compiled at                              Thu 26 Jan 13:39:53 GMT 2023
 # Program compiled on                                     cn1108.scarf.rl.ac.uk
 # Program compiled for                                                    local
 # Source code revision number                                       git:1ef701d
 &GLOBAL
   EXTENDED_FFT_LENGTHS  T
   PRINT_LEVEL  MEDIUM
   PROJECT_NAME dft_wfn
   RUN_TYPE  GEO_OPT
 &END GLOBAL
 &MOTION
   &GEO_OPT
     OPTIMIZER  BFGS
     MAX_ITER  1000
     STEP_START_VAL  9
   &END GEO_OPT
   &CONSTRAINT
     &FIXED_ATOMS
       LIST  1..40 76..116
     &END FIXED_ATOMS
   &END CONSTRAINT
   &PRINT
     &TRAJECTORY  ON
       FORMAT  XMOL
     &END TRAJECTORY
   &END PRINT
 &END MOTION
 &FORCE_EVAL
   METHOD  QS
   &DFT
     BASIS_SET_FILE_NAME BASIS_MOLOPT
     POTENTIAL_FILE_NAME GTH_POTENTIALS
     &SCF
       MAX_SCF  100
       EPS_SCF     9.9999999999999995E-08
       SCF_GUESS  ATOMIC
       ADDED_MOS  100
       &SMEAR  T
         METHOD  FERMI_DIRAC
         ELECTRONIC_TEMPERATURE     2.9300000000000000E+02
       &END SMEAR
       &MIXING  T
         METHOD  BROYDEN_MIXING
         ALPHA     2.9999999999999999E-01
         NBUFFER  8
       &END MIXING
       &PRINT
         &RESTART  SILENT
           FILENAME RESTART_0
         &END RESTART
       &END PRINT
     &END SCF
     &MGRID
       CUTOFF     4.0000000000000000E+02
     &END MGRID
     &XC
       DENSITY_CUTOFF     1.0000000000000000E-10
       GRADIENT_CUTOFF     1.0000000000000000E-10
       TAU_CUTOFF     1.0000000000000000E-10
       &XC_FUNCTIONAL  NO_SHORTCUT
         &PADE  T
         &END PADE
       &END XC_FUNCTIONAL
     &END XC
     &POISSON
       PERIODIC  XYZ
     &END POISSON
     &KPOINTS
       SCHEME MONKHORST-PACK 2 2 1
       SYMMETRY  F
       FULL_GRID  T
       VERBOSE  T
       EPS_GEO     1.0000000000000000E-08
       PARALLEL_GROUP_SIZE  0
     &END KPOINTS
     &PRINT
       &E_DENSITY_CUBE  ON
         STRIDE  2 2 2
       &END E_DENSITY_CUBE
       &V_HARTREE_CUBE  SILENT
         STRIDE  2 2 2
       &END V_HARTREE_CUBE
       &HIRSHFELD  SILENT
         SHAPE_FUNCTION  DENSITY
       &END HIRSHFELD
     &END PRINT
   &END DFT
   &SUBSYS
     &CELL
       A     8.2919999999999998E+00    0.0000000000000000E+00    0.0000000000000000E+00
       B     0.0000000000000000E+00    8.2919999999999998E+00    0.0000000000000000E+00
       C     0.0000000000000000E+00    0.0000000000000000E+00    3.4192999999999998E+01
       PERIODIC  XYZ
       MULTIPLE_UNIT_CELL  1 1 1
     &END CELL
     &COORD
Au    0.0000000000000000E+00    0.0000000000000000E+00    0.0000000000000000E+00
Au    0.0000000000000000E+00    4.1459999999999999E+00    0.0000000000000000E+00
Au    2.0730000000000000E+00    2.0730000000000000E+00    0.0000000000000000E+00
Au    2.0730000000000000E+00    6.2190000000000012E+00    0.0000000000000000E+00
Au    4.1459999999999999E+00    0.0000000000000000E+00    0.0000000000000000E+00
Au    4.1459999999999999E+00    4.1459999999999999E+00    0.0000000000000000E+00
Au    6.2190000000000012E+00    2.0730000000000000E+00    0.0000000000000000E+00
Au    6.2190000000000012E+00    6.2190000000000012E+00    0.0000000000000000E+00
Au    0.0000000000000000E+00    2.0730000000000000E+00    2.0730000000000000E+00
Au    0.0000000000000000E+00    6.2190000000000012E+00    2.0730000000000000E+00
Au    2.0730000000000000E+00    0.0000000000000000E+00    2.0730000000000000E+00
Au    2.0730000000000000E+00    4.1459999999999999E+00    2.0730000000000000E+00
Au    4.1459999999999999E+00    2.0730000000000000E+00    2.0730000000000000E+00
Au    4.1459999999999999E+00    6.2190000000000012E+00    2.0730000000000000E+00
Au    6.2190000000000012E+00    0.0000000000000000E+00    2.0730000000000000E+00
Au    6.2190000000000012E+00    4.1459999999999999E+00    2.0730000000000000E+00
Au    0.0000000000000000E+00    0.0000000000000000E+00    4.1459999999999999E+00
Au    0.0000000000000000E+00    4.1459999999999999E+00    4.1459999999999999E+00
Au    2.0730000000000000E+00    2.0730000000000000E+00    4.1459999999999999E+00
Au    2.0730000000000000E+00    6.2190000000000012E+00    4.1459999999999999E+00
Au    4.1459999999999999E+00    0.0000000000000000E+00    4.1459999999999999E+00
Au    4.1459999999999999E+00    4.1459999999999999E+00    4.1459999999999999E+00
Au    6.2190000000000012E+00    2.0730000000000000E+00    4.1459999999999999E+00
Au    6.2190000000000012E+00    6.2190000000000012E+00    4.1459999999999999E+00
Au    0.0000000000000000E+00    2.0730000000000000E+00    6.2190000000000012E+00
Au    0.0000000000000000E+00    6.2190000000000012E+00    6.2190000000000012E+00
Au    2.0730000000000000E+00    0.0000000000000000E+00    6.2190000000000012E+00
Au    2.0730000000000000E+00    4.1459999999999999E+00    6.2190000000000012E+00
Au    4.1459999999999999E+00    2.0730000000000000E+00    6.2190000000000012E+00
Au    4.1459999999999999E+00    6.2190000000000012E+00    6.2190000000000012E+00
Au    6.2190000000000012E+00    0.0000000000000000E+00    6.2190000000000012E+00
Au    6.2190000000000012E+00    4.1459999999999999E+00    6.2190000000000012E+00
Au    0.0000000000000000E+00    0.0000000000000000E+00    8.2919999999999998E+00
Au    0.0000000000000000E+00    4.1459999999999999E+00    8.2919999999999998E+00
Au    2.0730000000000000E+00    2.0730000000000000E+00    8.2919999999999998E+00
Au    2.0730000000000000E+00    6.2190000000000012E+00    8.2919999999999998E+00
Au    4.1459999999999999E+00    0.0000000000000000E+00    8.2919999999999998E+00
Au    4.1459999999999999E+00    4.1459999999999999E+00    8.2919999999999998E+00
Au    6.2190000000000012E+00    2.0730000000000000E+00    8.2919999999999998E+00
Au    6.2190000000000012E+00    6.2190000000000012E+00    8.2919999999999998E+00
Au    1.2545828150971035E-04    2.0731636421567368E+00    1.0392025714478923E+01
Au   -2.9788227542561995E-05    6.2180473685422442E+00    1.0336846034848840E+01
Au    2.0851123088313579E+00    2.3944957164226555E-02    1.0382464270879490E+01
Au    2.0860097093131960E+00    4.1211320544668508E+00    1.0385043567494801E+01
Au    4.1459798498801046E+00    2.0737220175600792E+00    1.0383931516265438E+01
Au    4.1460928487348241E+00    6.2182387863825710E+00    1.0361355799435072E+01
Au    6.2070451867969076E+00    2.3859123474243349E-02    1.0382538824366152E+01
Au    6.2061424204459561E+00    4.1212159955000409E+00    1.0385127713503826E+01
Au   -6.1000777963241203E-05   -4.5677018870246923E-02    1.2467465224883673E+01
Au   -5.1724858821669137E-05    4.1905649498676585E+00    1.2466688854081587E+01
Au    1.9394132307385774E+00    2.0694302071798076E+00    1.2526405131390879E+01
Au    2.0153432767618300E+00    6.2210691754786644E+00    1.2453336786984661E+01
Au    4.1464349116047439E+00   -1.4354668087392808E-01    1.2474770376135758E+01
Au    4.1464357161077654E+00    4.2979423333348477E+00    1.2480234420320954E+01
Au    6.3527037954160788E+00    2.0694339082487083E+00    1.2526422250442328E+01
Au    6.2767190250365710E+00    6.2210833917503452E+00    1.2454373959933703E+01
S    4.1450122197708534E+00    2.0877012758376310E+00    1.3947833569536334E+01
C    4.1431222375995942E+00    2.0829082852098253E+00    1.5708191723039107E+01
H    1.9957363016995320E+00    2.0807610822896554E+00    1.5845220321229462E+01
H    6.2903960372629051E+00    2.0806365986616857E+00    1.5850847551379031E+01
C    2.9339434430503832E+00    2.0775070928602082E+00    1.6403212004907370E+01
C    5.3506238818111926E+00    2.0774198815098028E+00    1.6406139666216308E+01
C    2.9323707358783069E+00    2.0682487371467917E+00    1.7784762509827797E+01
C    5.3485898757996653E+00    2.0681527669691131E+00    1.7787628019597559E+01
H    1.9921925907673002E+00    2.0643998180599601E+00    1.8339200818240045E+01
H    6.2870287546115762E+00    2.0642267750240730E+00    1.8344906293536358E+01
C    4.1396802761717328E+00    2.0632817662203293E+00    1.8483396042453133E+01
S    4.1389845433526258E+00    2.0596378883245903E+00    2.0244927959302316E+01
Au   -1.3531101784487071E-02   -4.6053118674009859E-02    2.1726844740633879E+01
Au   -1.4624096331964072E-02    4.1935793270538504E+00    2.1725134152442358E+01
Au    1.9265561113685781E+00    2.0759207924231551E+00    2.1700100081971648E+01
Au    2.0137243369000672E+00    6.2166568013146426E+00    2.1722189724538538E+01
Au    4.1211412786933801E+00   -1.2472469719291984E-01    2.1731095937576512E+01
Au    4.1230141909649847E+00    4.2635746794941216E+00    2.1734162902541634E+01
Au    6.3425376009705836E+00    2.0754764142599296E+00    2.1704855187250388E+01
Au    6.2190000000000012E+00    6.2190000000000012E+00    2.1755000000000003E+01
Au    0.0000000000000000E+00    2.0730000000000000E+00    2.3827999999999999E+01
Au    0.0000000000000000E+00    6.2190000000000012E+00    2.3827999999999999E+01
Au    2.0730000000000000E+00    0.0000000000000000E+00    2.3827999999999999E+01
Au    2.0730000000000000E+00    4.1459999999999999E+00    2.3827999999999999E+01
Au    4.1459999999999999E+00    2.0730000000000000E+00    2.3827999999999999E+01
Au    4.1459999999999999E+00    6.2190000000000012E+00    2.3827999999999999E+01
Au    6.2190000000000012E+00    0.0000000000000000E+00    2.3827999999999999E+01
Au    6.2190000000000012E+00    4.1459999999999999E+00    2.3827999999999999E+01
Au    0.0000000000000000E+00    0.0000000000000000E+00    2.5901000000000000E+01
Au    0.0000000000000000E+00    4.1459999999999999E+00    2.5901000000000000E+01
Au    2.0730000000000000E+00    2.0730000000000000E+00    2.5901000000000000E+01
Au    2.0730000000000000E+00    6.2190000000000012E+00    2.5901000000000000E+01
Au    4.1459999999999999E+00    0.0000000000000000E+00    2.5901000000000000E+01
Au    4.1459999999999999E+00    4.1459999999999999E+00    2.5901000000000000E+01
Au    6.2190000000000012E+00    2.0730000000000000E+00    2.5901000000000000E+01
Au    6.2190000000000012E+00    6.2190000000000012E+00    2.5901000000000000E+01
Au    0.0000000000000000E+00    2.0730000000000000E+00    2.7974000000000004E+01
Au    0.0000000000000000E+00    6.2190000000000012E+00    2.7974000000000004E+01
Au    2.0730000000000000E+00    0.0000000000000000E+00    2.7974000000000004E+01
Au    2.0730000000000000E+00    4.1459999999999999E+00    2.7974000000000004E+01
Au    4.1459999999999999E+00    2.0730000000000000E+00    2.7974000000000004E+01
Au    4.1459999999999999E+00    6.2190000000000012E+00    2.7974000000000004E+01
Au    6.2190000000000012E+00    0.0000000000000000E+00    2.7974000000000004E+01
Au    6.2190000000000012E+00    4.1459999999999999E+00    2.7974000000000004E+01
Au    0.0000000000000000E+00    0.0000000000000000E+00    3.0047000000000001E+01
Au    0.0000000000000000E+00    4.1459999999999999E+00    3.0047000000000001E+01
Au    2.0730000000000000E+00    2.0730000000000000E+00    3.0047000000000001E+01
Au    2.0730000000000000E+00    6.2190000000000012E+00    3.0047000000000001E+01
Au    4.1459999999999999E+00    0.0000000000000000E+00    3.0047000000000001E+01
Au    4.1459999999999999E+00    4.1459999999999999E+00    3.0047000000000001E+01
Au    6.2190000000000012E+00    2.0730000000000000E+00    3.0047000000000001E+01
Au    6.2190000000000012E+00    6.2190000000000012E+00    3.0047000000000001E+01
Au    0.0000000000000000E+00    2.0730000000000000E+00    3.2119999999999997E+01
Au    0.0000000000000000E+00    6.2190000000000012E+00    3.2119999999999997E+01
Au    2.0730000000000000E+00    0.0000000000000000E+00    3.2119999999999997E+01
Au    2.0730000000000000E+00    4.1459999999999999E+00    3.2119999999999997E+01
Au    4.1459999999999999E+00    2.0730000000000000E+00    3.2119999999999997E+01
Au    4.1459999999999999E+00    6.2190000000000012E+00    3.2119999999999997E+01
Au    6.2190000000000012E+00    0.0000000000000000E+00    3.2119999999999997E+01
Au    6.2190000000000012E+00    4.1459999999999999E+00    3.2119999999999997E+01
     &END COORD
     &KIND Au
       BASIS_SET SZV-MOLOPT-SR-GTH
       POTENTIAL GTH-PADE-q11
       &POTENTIAL
 1 0 10
  0.5900000000000000E+00 1  0.1160442790000000E+02
 3
  0.5211797500000001E+00 2  0.2538613590000000E+01 -0.1046136640000000E+01
  0.2701113200000000E+01
  0.6306130599999999E+00 2  0.3948527000000000E+00 -0.8695921300000000E+00
  0.2057830560000000E+01
  0.4407064300000000E+00 2 -0.4719069660000000E+01  0.7277708100000000E+00
 -0.1650429070000000E+01
         # Potential name:  GTH-PADE-Q11  for symbol:  AU
         # Potential read from the potential filename: GTH_POTENTIALS
       &END POTENTIAL
     &END KIND
     &KIND C
       BASIS_SET DZVP-MOLOPT-SR-GTH
       ELEMENT C
       POTENTIAL GTH-PADE-q4
       &POTENTIAL
 2 2
  0.3488304500000000E+00 2 -0.8513771100000000E+01  0.1228432030000000E+01
 2
  0.3045532100000000E+00 1  0.9522841789999999E+01
  0.2326773000000000E+00 0
         # Potential name:  GTH-PADE-Q4  for symbol:  C
         # Potential read from the potential filename: GTH_POTENTIALS
       &END POTENTIAL
     &END KIND
     &KIND S
       BASIS_SET DZVP-MOLOPT-SR-GTH
       ELEMENT S
       POTENTIAL GTH-PADE-q6
       &POTENTIAL
 2 4
  0.4200000000000000E+00 1 -0.6554491840000000E+01
 2
  0.3617566500000000E+00 2  0.7905302500000000E+01 -0.1731881300000000E+01
  0.4471698300000000E+01
  0.4052850200000000E+00 1  0.3866579000000000E+01
         # Potential name:  GTH-PADE-Q6  for symbol:  S
         # Potential read from the potential filename: GTH_POTENTIALS
       &END POTENTIAL
     &END KIND
     &KIND H
       BASIS_SET DZVP-MOLOPT-SR-GTH
       ELEMENT H
       POTENTIAL GTH-PADE-q1
       &POTENTIAL
 1
  0.2000000000000000E+00 2 -0.4180236800000000E+01  0.7250748200000000E+00
 0
         # Potential name:  GTH-PADE-Q1  for symbol:  H
         # Potential read from the potential filename: GTH_POTENTIALS
       &END POTENTIAL
     &END KIND
     &TOPOLOGY
       COORD_FILE_NAME em.xyz
       COORD_FILE_FORMAT  XYZ
       NUMBER_OF_ATOMS  116
       MULTIPLE_UNIT_CELL  1 1 1
     &END TOPOLOGY
   &END SUBSYS
 &END FORCE_EVAL
