 # Version information for this restart file 
 # current date 2023-02-22 15:13:39.445
 # current working dir /work4/scd/scarf1157/work/testing/cp2k-smeagol/bdt/cp2k/hollow-site/transport-cp2k/5-4/geometry-ordered/3x3-4/sz/bulk_layers-4/geo_opt/dzvp/Au-S-2.45_dft_rs-cg
 # Program compiled at                              Thu 26 Jan 13:39:53 GMT 2023
 # Program compiled on                                     cn1108.scarf.rl.ac.uk
 # Program compiled for                                                    local
 # Source code revision number                                       git:1ef701d
 &GLOBAL
   EXTENDED_FFT_LENGTHS  T
   PRINT_LEVEL  MEDIUM
   PROJECT_NAME dft_wfn
   RUN_TYPE  GEO_OPT
 &END GLOBAL
 &MOTION
   &GEO_OPT
     OPTIMIZER  CG
     MAX_ITER  1000
     MAX_FORCE     1.0000000000000000E-04
     STEP_START_VAL  13
   &END GEO_OPT
   &CONSTRAINT
     &FIXED_ATOMS
       LIST  1..40 76..116
     &END FIXED_ATOMS
   &END CONSTRAINT
   &PRINT
     &TRAJECTORY  ON
       FORMAT  XMOL
     &END TRAJECTORY
   &END PRINT
 &END MOTION
 &FORCE_EVAL
   METHOD  QS
   &DFT
     BASIS_SET_FILE_NAME BASIS_MOLOPT
     POTENTIAL_FILE_NAME GTH_POTENTIALS
     &SCF
       MAX_SCF  100
       EPS_SCF     9.9999999999999995E-08
       SCF_GUESS  ATOMIC
       ADDED_MOS  100
       &SMEAR  T
         METHOD  FERMI_DIRAC
         ELECTRONIC_TEMPERATURE     2.9300000000000000E+02
       &END SMEAR
       &MIXING  T
         METHOD  BROYDEN_MIXING
         ALPHA     2.9999999999999999E-01
         NBUFFER  8
       &END MIXING
       &PRINT
         &RESTART  SILENT
           FILENAME RESTART_0
         &END RESTART
       &END PRINT
     &END SCF
     &MGRID
       CUTOFF     4.0000000000000000E+02
     &END MGRID
     &XC
       DENSITY_CUTOFF     1.0000000000000000E-10
       GRADIENT_CUTOFF     1.0000000000000000E-10
       TAU_CUTOFF     1.0000000000000000E-10
       &XC_FUNCTIONAL  NO_SHORTCUT
         &PADE  T
         &END PADE
       &END XC_FUNCTIONAL
     &END XC
     &POISSON
       PERIODIC  XYZ
     &END POISSON
     &KPOINTS
       SCHEME MONKHORST-PACK 2 2 1
       SYMMETRY  F
       FULL_GRID  T
       VERBOSE  T
       EPS_GEO     1.0000000000000000E-08
       PARALLEL_GROUP_SIZE  0
     &END KPOINTS
     &PRINT
       &E_DENSITY_CUBE  ON
         STRIDE  2 2 2
       &END E_DENSITY_CUBE
       &V_HARTREE_CUBE  SILENT
         STRIDE  2 2 2
       &END V_HARTREE_CUBE
       &HIRSHFELD  SILENT
         SHAPE_FUNCTION  DENSITY
       &END HIRSHFELD
     &END PRINT
   &END DFT
   &SUBSYS
     &CELL
       A     8.2919999999999998E+00    0.0000000000000000E+00    0.0000000000000000E+00
       B     0.0000000000000000E+00    8.2919999999999998E+00    0.0000000000000000E+00
       C     0.0000000000000000E+00    0.0000000000000000E+00    3.3834000000000003E+01
       PERIODIC  XYZ
       MULTIPLE_UNIT_CELL  1 1 1
     &END CELL
     &COORD
Au    0.0000000000000000E+00    0.0000000000000000E+00    0.0000000000000000E+00
Au    0.0000000000000000E+00    4.1459999999999999E+00    0.0000000000000000E+00
Au    2.0730000000000000E+00    2.0730000000000000E+00    0.0000000000000000E+00
Au    2.0730000000000000E+00    6.2190000000000021E+00    0.0000000000000000E+00
Au    4.1459999999999999E+00    0.0000000000000000E+00    0.0000000000000000E+00
Au    4.1459999999999999E+00    4.1459999999999999E+00    0.0000000000000000E+00
Au    6.2190000000000021E+00    2.0730000000000000E+00    0.0000000000000000E+00
Au    6.2190000000000021E+00    6.2190000000000021E+00    0.0000000000000000E+00
Au    0.0000000000000000E+00    2.0730000000000000E+00    2.0730000000000000E+00
Au    0.0000000000000000E+00    6.2190000000000021E+00    2.0730000000000000E+00
Au    2.0730000000000000E+00    0.0000000000000000E+00    2.0730000000000000E+00
Au    2.0730000000000000E+00    4.1459999999999999E+00    2.0730000000000000E+00
Au    4.1459999999999999E+00    2.0730000000000000E+00    2.0730000000000000E+00
Au    4.1459999999999999E+00    6.2190000000000021E+00    2.0730000000000000E+00
Au    6.2190000000000021E+00    0.0000000000000000E+00    2.0730000000000000E+00
Au    6.2190000000000021E+00    4.1459999999999999E+00    2.0730000000000000E+00
Au    0.0000000000000000E+00    0.0000000000000000E+00    4.1459999999999999E+00
Au    0.0000000000000000E+00    4.1459999999999999E+00    4.1459999999999999E+00
Au    2.0730000000000000E+00    2.0730000000000000E+00    4.1459999999999999E+00
Au    2.0730000000000000E+00    6.2190000000000021E+00    4.1459999999999999E+00
Au    4.1459999999999999E+00    0.0000000000000000E+00    4.1459999999999999E+00
Au    4.1459999999999999E+00    4.1459999999999999E+00    4.1459999999999999E+00
Au    6.2190000000000021E+00    2.0730000000000000E+00    4.1459999999999999E+00
Au    6.2190000000000021E+00    6.2190000000000021E+00    4.1459999999999999E+00
Au    0.0000000000000000E+00    2.0730000000000000E+00    6.2190000000000021E+00
Au    0.0000000000000000E+00    6.2190000000000021E+00    6.2190000000000021E+00
Au    2.0730000000000000E+00    0.0000000000000000E+00    6.2190000000000021E+00
Au    2.0730000000000000E+00    4.1459999999999999E+00    6.2190000000000021E+00
Au    4.1459999999999999E+00    2.0730000000000000E+00    6.2190000000000021E+00
Au    4.1459999999999999E+00    6.2190000000000021E+00    6.2190000000000021E+00
Au    6.2190000000000021E+00    0.0000000000000000E+00    6.2190000000000021E+00
Au    6.2190000000000021E+00    4.1459999999999999E+00    6.2190000000000021E+00
Au    0.0000000000000000E+00    0.0000000000000000E+00    8.2919999999999998E+00
Au    0.0000000000000000E+00    4.1459999999999999E+00    8.2919999999999998E+00
Au    2.0730000000000000E+00    2.0730000000000000E+00    8.2919999999999998E+00
Au    2.0730000000000000E+00    6.2190000000000021E+00    8.2919999999999998E+00
Au    4.1459999999999999E+00    0.0000000000000000E+00    8.2919999999999998E+00
Au    4.1459999999999999E+00    4.1459999999999999E+00    8.2919999999999998E+00
Au    6.2190000000000021E+00    2.0730000000000000E+00    8.2919999999999998E+00
Au    6.2190000000000021E+00    6.2190000000000021E+00    8.2919999999999998E+00
Au   -5.6909161700938406E-05    2.0733426438499065E+00    1.0374445088455090E+01
Au   -1.6589178102081189E-05    6.2178278761256758E+00    1.0333396700473767E+01
Au    2.0836426746158860E+00    2.3678196558267885E-02    1.0383955251680566E+01
Au    2.0849693767273703E+00    4.1213455274521555E+00    1.0386802517597649E+01
Au    4.1459542368485591E+00    2.0734325356299097E+00    1.0356466703454862E+01
Au    4.1461122987256731E+00    6.2187911277308094E+00    1.0343383623667933E+01
Au    6.2085500856587892E+00    2.3538263471384342E-02    1.0383997033826120E+01
Au    6.2072020805758559E+00    4.1214750766578749E+00    1.0386865538872232E+01
Au   -2.0628619835408318E-04   -5.4788514447412506E-02    1.2468780752360800E+01
Au   -1.9398639402125307E-04    4.1998347901634681E+00    1.2467816427742102E+01
Au    1.9022498565121562E+00    2.0691418997535287E+00    1.2512700409794746E+01
Au    2.0055176422790275E+00    6.2215547906137658E+00    1.2452018048129499E+01
Au    4.1467247186673992E+00   -1.7467703329472561E-01    1.2457158704806664E+01
Au    4.1467075920801566E+00    4.3311051383419192E+00    1.2462230639826494E+01
Au    6.3894329137720689E+00    2.0691299748316743E+00    1.2513179941423425E+01
Au    6.2866611928539244E+00    6.2215521454828240E+00    1.2453560885402455E+01
S    4.1444908370054510E+00    2.0883475553637303E+00    1.3786160481288604E+01
C    4.1431514720126073E+00    2.0827605574323815E+00    1.5536062860835656E+01
H    1.9954306933063888E+00    2.0807385994879568E+00    1.5656566212394882E+01
H    6.2907463691704741E+00    2.0806019036088856E+00    1.5661209339550876E+01
C    2.9302931921344704E+00    2.0777176332013139E+00    1.6221436320128252E+01
C    5.3546314044223093E+00    2.0776466165695551E+00    1.6224002498637113E+01
C    2.9285530349778903E+00    2.0687077129631328E+00    1.7600458397358047E+01
C    5.3534310244979428E+00    2.0686241460095047E+00    1.7603080494947598E+01
H    1.9924551419796817E+00    2.0648876739594049E+00    1.8163474931553029E+01
H    6.2881635484699876E+00    2.0647176533245610E+00    1.8168114647388602E+01
C    4.1402548289952108E+00    2.0643238749312052E+00    1.8288297337845467E+01
S    4.1387881446348631E+00    2.0607471787643958E+00    2.0038209198096038E+01
Au   -1.7188306645048963E-02   -5.7816648050368506E-02    2.1363923469529034E+01
Au   -1.8655893693200795E-02    4.2051105900489389E+00    2.1361976769858369E+01
Au    1.8908202167176069E+00    2.0763145158346137E+00    2.1344382841754022E+01
Au    2.0004414204906595E+00    6.2163675500336568E+00    2.1358924648051563E+01
Au    4.1151133383435612E+00   -1.5414680372771566E-01    2.1379957515787442E+01
Au    4.1174224758594127E+00    4.2928602183055897E+00    2.1382016179375452E+01
Au    6.3756943750700206E+00    2.0752908552315175E+00    2.1352195178108424E+01
Au    6.2190000000000021E+00    6.2190000000000021E+00    2.1396000000000001E+01
Au    0.0000000000000000E+00    2.0730000000000000E+00    2.3469000000000001E+01
Au    0.0000000000000000E+00    6.2190000000000021E+00    2.3469000000000001E+01
Au    2.0730000000000000E+00    0.0000000000000000E+00    2.3469000000000001E+01
Au    2.0730000000000000E+00    4.1459999999999999E+00    2.3469000000000001E+01
Au    4.1459999999999999E+00    2.0730000000000000E+00    2.3469000000000001E+01
Au    4.1459999999999999E+00    6.2190000000000021E+00    2.3469000000000001E+01
Au    6.2190000000000021E+00    0.0000000000000000E+00    2.3469000000000001E+01
Au    6.2190000000000021E+00    4.1459999999999999E+00    2.3469000000000001E+01
Au    0.0000000000000000E+00    0.0000000000000000E+00    2.5542000000000009E+01
Au    0.0000000000000000E+00    4.1459999999999999E+00    2.5542000000000009E+01
Au    2.0730000000000000E+00    2.0730000000000000E+00    2.5542000000000009E+01
Au    2.0730000000000000E+00    6.2190000000000021E+00    2.5542000000000009E+01
Au    4.1459999999999999E+00    0.0000000000000000E+00    2.5542000000000009E+01
Au    4.1459999999999999E+00    4.1459999999999999E+00    2.5542000000000009E+01
Au    6.2190000000000021E+00    2.0730000000000000E+00    2.5542000000000009E+01
Au    6.2190000000000021E+00    6.2190000000000021E+00    2.5542000000000009E+01
Au    0.0000000000000000E+00    2.0730000000000000E+00    2.7614999999999998E+01
Au    0.0000000000000000E+00    6.2190000000000021E+00    2.7614999999999998E+01
Au    2.0730000000000000E+00    0.0000000000000000E+00    2.7614999999999998E+01
Au    2.0730000000000000E+00    4.1459999999999999E+00    2.7614999999999998E+01
Au    4.1459999999999999E+00    2.0730000000000000E+00    2.7614999999999998E+01
Au    4.1459999999999999E+00    6.2190000000000021E+00    2.7614999999999998E+01
Au    6.2190000000000021E+00    0.0000000000000000E+00    2.7614999999999998E+01
Au    6.2190000000000021E+00    4.1459999999999999E+00    2.7614999999999998E+01
Au    0.0000000000000000E+00    0.0000000000000000E+00    2.9688000000000006E+01
Au    0.0000000000000000E+00    4.1459999999999999E+00    2.9688000000000006E+01
Au    2.0730000000000000E+00    2.0730000000000000E+00    2.9688000000000006E+01
Au    2.0730000000000000E+00    6.2190000000000021E+00    2.9688000000000006E+01
Au    4.1459999999999999E+00    0.0000000000000000E+00    2.9688000000000006E+01
Au    4.1459999999999999E+00    4.1459999999999999E+00    2.9688000000000006E+01
Au    6.2190000000000021E+00    2.0730000000000000E+00    2.9688000000000006E+01
Au    6.2190000000000021E+00    6.2190000000000021E+00    2.9688000000000006E+01
Au    0.0000000000000000E+00    2.0730000000000000E+00    3.1760999999999999E+01
Au    0.0000000000000000E+00    6.2190000000000021E+00    3.1760999999999999E+01
Au    2.0730000000000000E+00    0.0000000000000000E+00    3.1760999999999999E+01
Au    2.0730000000000000E+00    4.1459999999999999E+00    3.1760999999999999E+01
Au    4.1459999999999999E+00    2.0730000000000000E+00    3.1760999999999999E+01
Au    4.1459999999999999E+00    6.2190000000000021E+00    3.1760999999999999E+01
Au    6.2190000000000021E+00    0.0000000000000000E+00    3.1760999999999999E+01
Au    6.2190000000000021E+00    4.1459999999999999E+00    3.1760999999999999E+01
     &END COORD
     &KIND Au
       BASIS_SET SZV-MOLOPT-SR-GTH
       POTENTIAL GTH-PADE-q11
       &POTENTIAL
1 0 10
0.5900000000000000E+00 1  0.1160442790000000E+02
3
0.5211797500000001E+00 2  0.2538613590000000E+01 -0.1046136640000000E+01
0.2701113200000000E+01
0.6306130599999999E+00 2  0.3948527000000000E+00 -0.8695921300000000E+00
0.2057830560000000E+01
0.4407064300000000E+00 2 -0.4719069660000000E+01  0.7277708100000000E+00
-0.1650429070000000E+01
       &END POTENTIAL
     &END KIND
     &KIND C
       BASIS_SET DZVP-MOLOPT-SR-GTH
       ELEMENT C
       POTENTIAL GTH-PADE-q4
       &POTENTIAL
2 2
0.3488304500000000E+00 2 -0.8513771100000000E+01  0.1228432030000000E+01
2
0.3045532100000000E+00 1  0.9522841789999999E+01
0.2326773000000000E+00 0
       &END POTENTIAL
     &END KIND
     &KIND S
       BASIS_SET DZVP-MOLOPT-SR-GTH
       ELEMENT S
       POTENTIAL GTH-PADE-q6
       &POTENTIAL
2 4
0.4200000000000000E+00 1 -0.6554491840000000E+01
2
0.3617566500000000E+00 2  0.7905302500000000E+01 -0.1731881300000000E+01
0.4471698300000000E+01
0.4052850200000000E+00 1  0.3866579000000000E+01
       &END POTENTIAL
     &END KIND
     &KIND H
       BASIS_SET DZVP-MOLOPT-SR-GTH
       ELEMENT H
       POTENTIAL GTH-PADE-q1
       &POTENTIAL
1
0.2000000000000000E+00 2 -0.4180236800000000E+01  0.7250748200000000E+00
0
       &END POTENTIAL
     &END KIND
     &TOPOLOGY
       COORD_FILE_NAME em.xyz
       COORD_FILE_FORMAT  XYZ
       NUMBER_OF_ATOMS  116
       MULTIPLE_UNIT_CELL  1 1 1
     &END TOPOLOGY
   &END SUBSYS
 &END FORCE_EVAL
