#
SystemName                   lead          # Descriptive name of the system
SystemLabel                  lead          # Short name for naming files

NumberOfSpecies              1             # Number of species
NumberOfAtoms                36            # Number of atoms

%block ChemicalSpeciesLabel
 1   79   Au
%endblock ChemicalSpeciesLabel

# ps
%block Ps.lmax
  Au    3 
%endblock Ps.lmax

# Basis
PAO.BasisType                split         # Type of basis ('nones', 'nonodes', 'split')
PAO.SplitNorm                0.15

%block PAO.Basis                           # basis
Au 2
n=6   0   2 P   1                   # n, l, Nzeta, Polarization, NzetaPol
6.0 0.0
n=5   2   1                         # n, l, Nzeta
5.5
%endblock PAO.Basis


# lattice vectors
LatticeConstant              1.0 Ang
%block LatticeVectors
         8.86712000        0.00000000        0.00000000
         0.00000        8.86712000        0.00000000
         0.00000000        0.00000000       8.36000000
%endblock LatticeVectors

# coordinates
AtomicCoordinatesFormat      Ang
%block AtomicCoordinatesAndAtomicSpecies
          1.78720903       1.28067091       0.00000000      1     Au      1
          0.30935586       2.75852409       2.09000000      1     Au      2
          1.78720903       1.28067091       4.18000000      1     Au      3
          0.30935586       2.75852409       6.27000000      1     Au      4
          4.74291537       1.28067091       0.00000000      1     Au      5
          3.26506220       2.75852409       2.09000000      1     Au      6
          4.74291537       1.28067091       4.18000000      1     Au      7
          3.26506220       2.75852409       6.27000000      1     Au      8
          7.69862172       1.28067091       0.00000000      1     Au      9
          6.22076855       2.75852409       2.09000000      1     Au     10
          7.69862172       1.28067091       4.18000000      1     Au     11
          6.22076855       2.75852409       6.27000000      1     Au     12
          1.78720903       4.23637726       0.00000000      1     Au     13
          0.30935586       5.71423043       2.09000000      1     Au     14
          1.78720903       4.23637726       4.18000000      1     Au     15
          0.30935586       5.71423043       6.27000000      1     Au     16
          4.74291537       4.23637726       0.00000000      1     Au     17
          3.26506220       5.71423043       2.09000000      1     Au     18
          4.74291537       4.23637726       4.18000000      1     Au     19
          3.26506220       5.71423043       6.27000000      1     Au     20
          7.69862172       4.23637726       0.00000000      1     Au     21
          6.22076855       5.71423043       2.09000000      1     Au     22
          7.69862172       4.23637726       4.18000000      1     Au     23
          6.22076855       5.71423043       6.27000000      1     Au     24
          1.78720903       7.19208360       0.00000000      1     Au     25
          0.30935586       8.66993678       2.09000000      1     Au     26
          1.78720903       7.19208360       4.18000000      1     Au     27
          0.30935586       8.66993678       6.27000000     1
          4.74291537       7.19208360       0.00000000     1
          3.26506220       8.66993678       2.09000000     1
          4.74291537       7.19208360       4.18000000     1
          3.26506220       8.66993678       6.27000000     1
          7.69862172       7.19208360       0.00000000     1
          6.22076855       8.66993678       2.09000000     1
          7.69862172       7.19208360       4.18000000     1
          6.22076855       8.66993678       6.27000000     1
%endblock AtomicCoordinatesAndAtomicSpecies

# constrains in dynamics
#%block GeometryConstraints
#   position   from  1 to  6
#   position   from -1 to -6
#%endblock GeometryConstraints

# real space mesh grid
MeshCutoff                   800.0 Ry
%block GridCellSampling
  0.5  0.5   0.0
  0.5  0.0   0.5
  0.0  0.5   0.5
%endblock GridCellSampling

# reciprocal space
%block kgrid_Monkhorst_Pack
  3   0   0    0.0
  0   3   0    0.0
  0   0   20   0.0
%endblock kgrid_Monkhorst_Pack

#ProcessorY                   4
#BlockSize                    100

# functional
xc.functional                GGA           # 'LDA', 'GGA'
xc.authors                   PBE           # 'CA'='PZ', 'PW92', 'PBE'

# scf
MaxSCFIterations             300
DM.MixingWeight              0.02
DM.Tolerance                 1.0E-8
DM.UseSaveDM                 T
DM.NumberPulay               6             # Pulay convergency accelerator
DM.MixSCF1                   F

SolutionMethod               diagon 
ElectronicTemperature        300 K         # Default value

# MD options
MD.TypeOfRun                 cg            # Type of dynamics:
MD.VariableCell              false         # if vary cell
MD.NumCGsteps                0             # Number of CG steps for relaxation
MD.MaxCGDispl                0.1 Ang      # Maximum atomic displacement at one step
MD.MaxForceTol               0.03 eV/Ang   # Tolerance in the maximum force min(fx, fy, fz)
MD.MaxStressTol              0.1 Gpa


#Siesta Output Flags
SaveHS                       true          # Hamiltonian and overlap in sparse
SaveRHO                      T
WriteMullikenPop             1
WriteForces                  T
WriteCoorStep                T
SaveElectrostaticPotential   T             # Hartree Potential file
 

##for smeagol-trans

#SetBulkTransvCell           T
BulkTransport                T
BulkLeads                    LR

WriteEDM                     T
WriteFDM                     T
SaveElectrostaticPotential   T             # Generate 0.*.VH file for Hartree potential leveling

