 # Version information for this restart file 
 # current date 2023-02-22 11:30:13.020
 # current working dir /work4/scd/scarf1157/work/testing/cp2k-smeagol/bdt/cp2k/hollow-site/transport-cp2k/5-4/geometry-ordered/3x3-4/sz/bulk_layers-4/geo_opt/dzvp/Au-S-2.5_dft_cg
 # Program compiled at                              Thu 26 Jan 13:39:53 GMT 2023
 # Program compiled on                                     cn1108.scarf.rl.ac.uk
 # Program compiled for                                                    local
 # Source code revision number                                       git:1ef701d
 &GLOBAL
   EXTENDED_FFT_LENGTHS  T
   PRINT_LEVEL  MEDIUM
   PROJECT_NAME dft_wfn
   RUN_TYPE  GEO_OPT
 &END GLOBAL
 &MOTION
   &GEO_OPT
     OPTIMIZER  CG
     MAX_ITER  1000
     STEP_START_VAL  4
   &END GEO_OPT
   &CONSTRAINT
     &FIXED_ATOMS
       LIST  1..40 76..116
     &END FIXED_ATOMS
   &END CONSTRAINT
   &PRINT
     &TRAJECTORY  ON
       FORMAT  XMOL
     &END TRAJECTORY
   &END PRINT
 &END MOTION
 &FORCE_EVAL
   METHOD  QS
   &DFT
     BASIS_SET_FILE_NAME BASIS_MOLOPT
     POTENTIAL_FILE_NAME GTH_POTENTIALS
     &SCF
       MAX_SCF  100
       EPS_SCF     9.9999999999999995E-08
       SCF_GUESS  ATOMIC
       ADDED_MOS  100
       &SMEAR  T
         METHOD  FERMI_DIRAC
         ELECTRONIC_TEMPERATURE     2.9300000000000000E+02
       &END SMEAR
       &MIXING  T
         METHOD  BROYDEN_MIXING
         ALPHA     2.9999999999999999E-01
         NBUFFER  8
       &END MIXING
       &PRINT
         &RESTART  SILENT
           FILENAME RESTART_0
         &END RESTART
       &END PRINT
     &END SCF
     &MGRID
       CUTOFF     4.0000000000000000E+02
     &END MGRID
     &XC
       DENSITY_CUTOFF     1.0000000000000000E-10
       GRADIENT_CUTOFF     1.0000000000000000E-10
       TAU_CUTOFF     1.0000000000000000E-10
       &XC_FUNCTIONAL  NO_SHORTCUT
         &PADE  T
         &END PADE
       &END XC_FUNCTIONAL
     &END XC
     &POISSON
       PERIODIC  XYZ
     &END POISSON
     &KPOINTS
       SCHEME MONKHORST-PACK 2 2 1
       SYMMETRY  F
       FULL_GRID  T
       VERBOSE  T
       EPS_GEO     1.0000000000000000E-08
       PARALLEL_GROUP_SIZE  0
     &END KPOINTS
     &PRINT
       &E_DENSITY_CUBE  ON
         STRIDE  2 2 2
       &END E_DENSITY_CUBE
       &V_HARTREE_CUBE  SILENT
         STRIDE  2 2 2
       &END V_HARTREE_CUBE
       &HIRSHFELD  SILENT
         SHAPE_FUNCTION  DENSITY
       &END HIRSHFELD
     &END PRINT
   &END DFT
   &SUBSYS
     &CELL
       A     8.2919999999999998E+00    0.0000000000000000E+00    0.0000000000000000E+00
       B     0.0000000000000000E+00    8.2919999999999998E+00    0.0000000000000000E+00
       C     0.0000000000000000E+00    0.0000000000000000E+00    3.4018000000000001E+01
       PERIODIC  XYZ
       MULTIPLE_UNIT_CELL  1 1 1
     &END CELL
     &COORD
Au    0.0000000000000000E+00    0.0000000000000000E+00    0.0000000000000000E+00
Au    0.0000000000000000E+00    4.1459999999999999E+00    0.0000000000000000E+00
Au    2.0730000000000000E+00    2.0730000000000000E+00    0.0000000000000000E+00
Au    2.0730000000000000E+00    6.2190000000000012E+00    0.0000000000000000E+00
Au    4.1459999999999999E+00    0.0000000000000000E+00    0.0000000000000000E+00
Au    4.1459999999999999E+00    4.1459999999999999E+00    0.0000000000000000E+00
Au    6.2190000000000012E+00    2.0730000000000000E+00    0.0000000000000000E+00
Au    6.2190000000000012E+00    6.2190000000000012E+00    0.0000000000000000E+00
Au    0.0000000000000000E+00    2.0730000000000000E+00    2.0730000000000000E+00
Au    0.0000000000000000E+00    6.2190000000000012E+00    2.0730000000000000E+00
Au    2.0730000000000000E+00    0.0000000000000000E+00    2.0730000000000000E+00
Au    2.0730000000000000E+00    4.1459999999999999E+00    2.0730000000000000E+00
Au    4.1459999999999999E+00    2.0730000000000000E+00    2.0730000000000000E+00
Au    4.1459999999999999E+00    6.2190000000000012E+00    2.0730000000000000E+00
Au    6.2190000000000012E+00    0.0000000000000000E+00    2.0730000000000000E+00
Au    6.2190000000000012E+00    4.1459999999999999E+00    2.0730000000000000E+00
Au    0.0000000000000000E+00    0.0000000000000000E+00    4.1459999999999999E+00
Au    0.0000000000000000E+00    4.1459999999999999E+00    4.1459999999999999E+00
Au    2.0730000000000000E+00    2.0730000000000000E+00    4.1459999999999999E+00
Au    2.0730000000000000E+00    6.2190000000000012E+00    4.1459999999999999E+00
Au    4.1459999999999999E+00    0.0000000000000000E+00    4.1459999999999999E+00
Au    4.1459999999999999E+00    4.1459999999999999E+00    4.1459999999999999E+00
Au    6.2190000000000012E+00    2.0730000000000000E+00    4.1459999999999999E+00
Au    6.2190000000000012E+00    6.2190000000000012E+00    4.1459999999999999E+00
Au    0.0000000000000000E+00    2.0730000000000000E+00    6.2190000000000012E+00
Au    0.0000000000000000E+00    6.2190000000000012E+00    6.2190000000000012E+00
Au    2.0730000000000000E+00    0.0000000000000000E+00    6.2190000000000012E+00
Au    2.0730000000000000E+00    4.1459999999999999E+00    6.2190000000000012E+00
Au    4.1459999999999999E+00    2.0730000000000000E+00    6.2190000000000012E+00
Au    4.1459999999999999E+00    6.2190000000000012E+00    6.2190000000000012E+00
Au    6.2190000000000012E+00    0.0000000000000000E+00    6.2190000000000012E+00
Au    6.2190000000000012E+00    4.1459999999999999E+00    6.2190000000000012E+00
Au    0.0000000000000000E+00    0.0000000000000000E+00    8.2919999999999998E+00
Au    0.0000000000000000E+00    4.1459999999999999E+00    8.2919999999999998E+00
Au    2.0730000000000000E+00    2.0730000000000000E+00    8.2919999999999998E+00
Au    2.0730000000000000E+00    6.2190000000000012E+00    8.2919999999999998E+00
Au    4.1459999999999999E+00    0.0000000000000000E+00    8.2919999999999998E+00
Au    4.1459999999999999E+00    4.1459999999999999E+00    8.2919999999999998E+00
Au    6.2190000000000012E+00    2.0730000000000000E+00    8.2919999999999998E+00
Au    6.2190000000000012E+00    6.2190000000000012E+00    8.2919999999999998E+00
Au    2.7483786468157740E-05    2.0730075567918091E+00    1.0374067286400830E+01
Au   -4.4261894710610572E-06    6.2189527779313734E+00    1.0359587238980486E+01
Au    2.0730222805400125E+00    1.8516080901759631E-03    1.0356467724181673E+01
Au    2.0730100211394844E+00    4.1442273788656134E+00    1.0356348457423724E+01
Au    4.1460247148782479E+00    2.0728735784696948E+00    1.0314565617670977E+01
Au    4.1459856792220071E+00    6.2186909203181671E+00    1.0369954107313252E+01
Au    6.2189672652210719E+00    1.8592205372139443E-03    1.0356484410115046E+01
Au    6.2189805842909935E+00    4.1442203723087641E+00    1.0356364042613329E+01
Au    2.1615151810586555E-05   -1.7721066601328564E-02    1.2442892341064107E+01
Au    2.2560843597892507E-05    4.1638510531914390E+00    1.2443016066161697E+01
Au    1.9680031144583541E+00    2.0729801722545012E+00    1.2442758443659558E+01
Au    2.0533274335661074E+00    6.2190189203461737E+00    1.2442044141359812E+01
Au    4.1459797669544187E+00   -1.1000652018579071E-01    1.2429871912599127E+01
Au    4.1459806431946227E+00    4.2552957452964435E+00    1.2430410124280455E+01
Au    6.3241383861259264E+00    2.0729811547367150E+00    1.2442673418650296E+01
Au    6.2386551471109053E+00    6.2190198352481589E+00    1.2442031247686682E+01
S    4.1458717819641180E+00    2.0772319184495163E+00    1.3890357481435723E+01
C    4.1437158403949388E+00    2.0846232888407399E+00    1.5649538327470596E+01
H    1.9939448632024577E+00    2.0965994294985046E+00    1.5756268104864143E+01
H    6.2928355555314166E+00    2.0965064437535035E+00    1.5766181935559683E+01
C    2.9231444419454951E+00    2.0799862673208427E+00    1.6318552670261127E+01
C    5.3633745314885388E+00    2.0800859894646044E+00    1.6320069864970421E+01
C    2.9182357824754588E+00    2.0640743713997645E+00    1.7696739997755827E+01
C    5.3583534332915566E+00    2.0641444893165106E+00    1.7698190805179440E+01
H    1.9887665602101425E+00    2.0475364654980193E+00    1.8251385881493810E+01
H    6.2876502006960688E+00    2.0474135828077089E+00    1.8260945142924985E+01
C    4.1379553455373737E+00    2.0598429392689952E+00    1.8367501364228126E+01
S    4.1416395564843276E+00    2.0684211787704458E+00    2.0124604864022146E+01
Au   -3.2962334721630575E-04   -1.6323635482606756E-02    2.1574821751627699E+01
Au   -3.3097245393397582E-04    4.1621673852894405E+00    2.1574958014283336E+01
Au    1.9639402366493219E+00    2.0730829469176801E+00    2.1572932165089959E+01
Au    2.0547742416128512E+00    6.2189481698937943E+00    2.1575381906424834E+01
Au    4.1457767521135480E+00   -1.1285832497536286E-01    2.1585044261828756E+01
Au    4.1457780270580171E+00    4.2595897723763603E+00    2.1585647172994797E+01
Au    6.3285207672626544E+00    2.0730840949858993E+00    2.1573520617917829E+01
Au    6.2190000000000012E+00    6.2190000000000012E+00    2.1580000000000002E+01
Au    0.0000000000000000E+00    2.0730000000000000E+00    2.3652999999999999E+01
Au    0.0000000000000000E+00    6.2190000000000012E+00    2.3652999999999999E+01
Au    2.0730000000000000E+00    0.0000000000000000E+00    2.3652999999999999E+01
Au    2.0730000000000000E+00    4.1459999999999999E+00    2.3652999999999999E+01
Au    4.1459999999999999E+00    2.0730000000000000E+00    2.3652999999999999E+01
Au    4.1459999999999999E+00    6.2190000000000012E+00    2.3652999999999999E+01
Au    6.2190000000000012E+00    0.0000000000000000E+00    2.3652999999999999E+01
Au    6.2190000000000012E+00    4.1459999999999999E+00    2.3652999999999999E+01
Au    0.0000000000000000E+00    0.0000000000000000E+00    2.5726000000000003E+01
Au    0.0000000000000000E+00    4.1459999999999999E+00    2.5726000000000003E+01
Au    2.0730000000000000E+00    2.0730000000000000E+00    2.5726000000000003E+01
Au    2.0730000000000000E+00    6.2190000000000012E+00    2.5726000000000003E+01
Au    4.1459999999999999E+00    0.0000000000000000E+00    2.5726000000000003E+01
Au    4.1459999999999999E+00    4.1459999999999999E+00    2.5726000000000003E+01
Au    6.2190000000000012E+00    2.0730000000000000E+00    2.5726000000000003E+01
Au    6.2190000000000012E+00    6.2190000000000012E+00    2.5726000000000003E+01
Au    0.0000000000000000E+00    2.0730000000000000E+00    2.7798999999999999E+01
Au    0.0000000000000000E+00    6.2190000000000012E+00    2.7798999999999999E+01
Au    2.0730000000000000E+00    0.0000000000000000E+00    2.7798999999999999E+01
Au    2.0730000000000000E+00    4.1459999999999999E+00    2.7798999999999999E+01
Au    4.1459999999999999E+00    2.0730000000000000E+00    2.7798999999999999E+01
Au    4.1459999999999999E+00    6.2190000000000012E+00    2.7798999999999999E+01
Au    6.2190000000000012E+00    0.0000000000000000E+00    2.7798999999999999E+01
Au    6.2190000000000012E+00    4.1459999999999999E+00    2.7798999999999999E+01
Au    0.0000000000000000E+00    0.0000000000000000E+00    2.9872000000000000E+01
Au    0.0000000000000000E+00    4.1459999999999999E+00    2.9872000000000000E+01
Au    2.0730000000000000E+00    2.0730000000000000E+00    2.9872000000000000E+01
Au    2.0730000000000000E+00    6.2190000000000012E+00    2.9872000000000000E+01
Au    4.1459999999999999E+00    0.0000000000000000E+00    2.9872000000000000E+01
Au    4.1459999999999999E+00    4.1459999999999999E+00    2.9872000000000000E+01
Au    6.2190000000000012E+00    2.0730000000000000E+00    2.9872000000000000E+01
Au    6.2190000000000012E+00    6.2190000000000012E+00    2.9872000000000000E+01
Au    0.0000000000000000E+00    2.0730000000000000E+00    3.1945000000000004E+01
Au    0.0000000000000000E+00    6.2190000000000012E+00    3.1945000000000004E+01
Au    2.0730000000000000E+00    0.0000000000000000E+00    3.1945000000000004E+01
Au    2.0730000000000000E+00    4.1459999999999999E+00    3.1945000000000004E+01
Au    4.1459999999999999E+00    2.0730000000000000E+00    3.1945000000000004E+01
Au    4.1459999999999999E+00    6.2190000000000012E+00    3.1945000000000004E+01
Au    6.2190000000000012E+00    0.0000000000000000E+00    3.1945000000000004E+01
Au    6.2190000000000012E+00    4.1459999999999999E+00    3.1945000000000004E+01
     &END COORD
     &KIND Au
       BASIS_SET SZV-MOLOPT-SR-GTH
       POTENTIAL GTH-PADE-q11
       &POTENTIAL
 1 0 10
  0.5900000000000000E+00 1  0.1160442790000000E+02
 3
  0.5211797500000001E+00 2  0.2538613590000000E+01 -0.1046136640000000E+01
  0.2701113200000000E+01
  0.6306130599999999E+00 2  0.3948527000000000E+00 -0.8695921300000000E+00
  0.2057830560000000E+01
  0.4407064300000000E+00 2 -0.4719069660000000E+01  0.7277708100000000E+00
 -0.1650429070000000E+01
         # Potential name:  GTH-PADE-Q11  for symbol:  AU
         # Potential read from the potential filename: GTH_POTENTIALS
       &END POTENTIAL
     &END KIND
     &KIND C
       BASIS_SET DZVP-MOLOPT-SR-GTH
       ELEMENT C
       POTENTIAL GTH-PADE-q4
       &POTENTIAL
 2 2
  0.3488304500000000E+00 2 -0.8513771100000000E+01  0.1228432030000000E+01
 2
  0.3045532100000000E+00 1  0.9522841789999999E+01
  0.2326773000000000E+00 0
         # Potential name:  GTH-PADE-Q4  for symbol:  C
         # Potential read from the potential filename: GTH_POTENTIALS
       &END POTENTIAL
     &END KIND
     &KIND S
       BASIS_SET DZVP-MOLOPT-SR-GTH
       ELEMENT S
       POTENTIAL GTH-PADE-q6
       &POTENTIAL
 2 4
  0.4200000000000000E+00 1 -0.6554491840000000E+01
 2
  0.3617566500000000E+00 2  0.7905302500000000E+01 -0.1731881300000000E+01
  0.4471698300000000E+01
  0.4052850200000000E+00 1  0.3866579000000000E+01
         # Potential name:  GTH-PADE-Q6  for symbol:  S
         # Potential read from the potential filename: GTH_POTENTIALS
       &END POTENTIAL
     &END KIND
     &KIND H
       BASIS_SET DZVP-MOLOPT-SR-GTH
       ELEMENT H
       POTENTIAL GTH-PADE-q1
       &POTENTIAL
 1
  0.2000000000000000E+00 2 -0.4180236800000000E+01  0.7250748200000000E+00
 0
         # Potential name:  GTH-PADE-Q1  for symbol:  H
         # Potential read from the potential filename: GTH_POTENTIALS
       &END POTENTIAL
     &END KIND
     &TOPOLOGY
       COORD_FILE_NAME em.xyz
       COORD_FILE_FORMAT  XYZ
       NUMBER_OF_ATOMS  116
       MULTIPLE_UNIT_CELL  1 1 1
     &END TOPOLOGY
   &END SUBSYS
 &END FORCE_EVAL
