
#FDF: Opened INPUT_TMP            for input. Unit: 12

fdf-debug              0     # Default value
SystemName     Au wire                                                                                                                             
SystemLabel     Au                                                                                                                                  
alloc_report_level              0     # Default value
user-basis              F     # Default value
user-basis-netcdf              F     # Default value
PAO.BasisSize     standard            # Default value
PAO.BasisType     split                                                                                                                               
Number_of_species                        1

%block ChemicalSpeciesLabel                                                    
 1 79 Au                                                                       
%endblock ChemicalSpeciesLabel                                                 
 

%block PAO.Basis                                                               
  Au  1                                                                        
n=6  0  1  P 0 E 20 4                                                          
  5.5                                                                          
%endblock PAO.Basis                                                            
 

%block PS.lmax                                                                 
 Au   1                                                                        
%endblock PS.lmax                                                              
 
PS.SIC              F     # Default value
ProjectionMethod     Zeta     # Default value
SIC.Flavour     Pseudo     # Default value
SIC.Lambda         0.5000000000         # Default value
SIC.NoRelaxation              F     # Default value
SIC.Rot_Inv              F     # Default value
WriteProjections              T     # Default value
ProjectionInSCF              F     # Default value
SIC.PopKgridFactor              1     # Default value
SIC.PopDMConv         0.1000000000E-03     # Default value
SIC.PopSmatSparsity         0.1000000000E-03     # Default value
SIC.ProjectionMode     SaveTime     # Default value
SIC.Npop              1     # Default value
SpinOrbit              F     # Default value
SpinOrbit              F     # Default value
xc.functional     LDA                                                                                                                                 
xc.authors     CA                                                                                                                                  
PAO.EnergyShift         0.2000000000E-01 Ry     # Default value
PAO.SplitNorm         0.1500000000    
PAO.SplitNorm         0.1500000000    
PAO.BasisType     split                                                                                                                               
CDFT              F     # Default value
CDFT.MaxIter              1     # Default value
LatticeConstant          1.889726878           Bohr
# Above item originally: LatticeConstant          1.000000000     Ang       

%block LatticeVectors                                                          
  9.000   0.000   0.000	  1                                                    
  0.000   9.000   0.000   1                                                    
  0.000   0.000  22.400   1                                                    
%endblock LatticeVectors                                                       
 

%block LatticeVectors                                                          
  9.000   0.000   0.000	  1                                                    
  0.000   9.000   0.000   1                                                    
  0.000   0.000  22.400   1                                                    
%endblock LatticeVectors                                                       
 
AtomicCoordinatesFormat     Ang                                                                                                                                 
NumberOfAtoms                        8

%block AtomicCoordinatesAndAtomicSpecies                                       
   0.000   0.000  0.000   1  Au  1                                             
   0.000   0.000  2.800   1  Au  2                                             
   0.000   0.000  5.600   1  Au  3                                             
   0.000   0.000  8.400   1  Au  4                                             
   0.000   0.000 11.200   1  Au  5                                             
   0.000   0.000 14.000   1  Au  6                                             
   0.000   0.000 16.800   1  Au  7                                             
   0.000   0.000 19.600   1  Au  8                                             
%endblock AtomicCoordinatesAndAtomicSpecies 	                                  
 
SpinPolarized              F
NonCollinearSpin              F     # Default value
SpinOrbit              F     # Default value
LongOutput              F     # Default value
NumberOfSpecies                        1
WriteDenchar              F     # Default value
WriteMullikenPop                        0
MeshCutoff          200.0000000             Ry
# Above item originally: MeshCutoff          200.0000000     Ry        
NetCharge          0.000000000         # Default value
MaxSCFIterations                     1000
DM.NumberPulay                        4
DM.MixSCF1              T
DM.PulayOnFile              F     # Default value
DM.MixingWeight         0.1000000000    
DM.NumberKick              0     # Default value
DM.KickMixingWeight         0.5000000000         # Default value
DM.Tolerance         0.2000000000E-03
UseSaveData              F     # Default value
DM.UseSaveDM              T
NeglNonOverlapInt              F     # Default value
SolutionMethod     diagon     # Default value
DiagMemory          2.000000000         # Default value
DiagScale          1.500000000         # Default value
TryMemoryIncrease              T     # Default value
ElectronicTemperature         0.1900069269E-02         Ry
# Above item originally: ElectronicTemperature          300.0000000     K         
FixSpin              F     # Default value
ON.MaxNumIter           1000     # Default value
ON.etol         0.1000000000E-07     # Default value
ON.eta          0.000000000     Ry     # Default value
On.RcLWF          9.500000000     Bohr     # Default value
UseSaveData              F     # Default value
ON.UseSaveLWF              F     # Default value
ON.functional     kim               # Default value
ON.ChemicalPotential              F     # Default value
ON.ChemicalPotentialUse              F     # Default value
ON.ChemicalPotentialRc          9.500000000     Bohr     # Default value
ON.ChemicalPotentialTemperature         0.5000000075E-01 Ry     # Default value
ON.ChemicalPotentialOrder            100     # Default value
MD.VariableCell              F     # Default value
MD.TypeOfRun     cg                         # Default value
MD.LengthTimeStep          1.000000000     fs     # Default value
UseSaveData              F     # Default value
MD.UseSaveCG              F     # Default value
MD.NumCGsteps              0     # Default value
MD.NumNEBsteps              1     # Default value
MD.MaxCGDispl         0.2000000000     Bohr     # Default value
MD.MaxForceTol         0.1555740000E-02 Ry/Bohr     # Default value
MD.MaxStressTol         0.6797730000E-04 Ry/Bohr**3     # Default value
MD.InitialTimeStep              1     # Default value
MD.FinalTimeStep              1     # Default value
MD.Quench              F     # Default value
MD.InitialTemperature          0.000000000     K     # Default value
MD.TargetTemperature          0.000000000     K     # Default value
MD.TargetPressure          0.000000000     Ry/Bohr**3     # Default value
MD.NoseMass          100.0000000     Ry*fs**2     # Default value
MD.ParrinelloRahmanMass          100.0000000     Ry*fs**2     # Default value
MD.AnnealOption     TemperatureAndPressure     # Default value
MD.TauRelax          100.0000000     fs     # Default value
MD.BulkModulus          100.0000000         # Default value
MD.FCDispl         0.4000000000E-01 Bohr     # Default value
MD.FCfirst              1     # Default value
MD.FClast              8     # Default value
Harris_functional              F     # Default value
WriteEDM              F     # Default value
WriteKpoints              F     # Default value
WriteForces              F     # Default value
WriteDM              T     # Default value
WriteEigenvalues              F     # Default value
WriteBands              F
WriteKbands              F     # Default value
WriteCoorStep              F     # Default value
WriteCoorInitial              T     # Default value
WriteMDhistory              F     # Default value
WriteMDXmol              T
UseSaveData              F     # Default value
MD.UseSaveXV              F     # Default value
MD.UseSaveNEB              F     # Default value
NEB.SkipEdge              F     # Default value
SaveHS              F     # Default value
FixAuxillaryCell              F     # Default value
ReInitialiseDM              F     # Default value
SignatureRecords              F     # Default value
MullikenInSCF              F     # Default value
BuildSuperCell              F     # Default value
ReadKPIN              F     # Default value
TimeReversal              T     # Default value
WriteSpinSCF              F     # Default value
WriteSpinMulliken              F     # Default value
WarningMinimumAtomicDistance          1.000000000     Bohr     # Default value
STT.Calculation              F     # Default value
STT.LinearResponse              F     # Default value
RotateSpin.Theta          0.000000000         # Default value
RotateSpin.Phi          0.000000000         # Default value
NC.OrbitalRotationStart              1     # Default value
NC.OrbitalRotationEnd             -1     # Default value
processorY              2     # Default value
blocksize              1     # Default value

%block kgrid_Monkhorst_Pack                                                    
  1   0   0     0.0                                                            
  0   1   0     0.0                                                            
  0   0   1     0.0                                                            
%endblock kgrid_Monkhorst_Pack                                                 
 
LongOutput              F     # Default value
WriteWaveFunctions              F     # Default value
EM.PrintLimits              F     # Default value
EMTransport              T
NEnergReal                      320
NenergImCircle                       16
NenergImLine                       16
NPoles                       16
VInitial          0.000000000             Ry
# Above item originally: VInitial          0.000000000     eV        
VFinal         0.1102469827             Ry
# Above item originally: VFinal          1.500000000     eV        
NIVPoints                       15
Delta         0.1000000000E-03
EnergLowestBound         -4.400000000             Ry
# Above item originally: EnergLowestBound         -4.400000000     Ry        
SpinConfLeads              0     # Default value
AtomLeftVcte              1     # Default value
AtomRightVcte              8     # Default value
ZLeftVcte          0.000000000     Bohr     # Default value
ZRightVcte          0.000000000     Bohr     # Default value
NSlices                        1
TrCoefficients              T
SetBulkTransvCell              F     # Default value
Sigma.DSigmaDE              F     # Default value
BulkTransvCellSize              3     # Default value
BulkTransvCellSizeX              3     # Default value
BulkTransvCellSizeY              3     # Default value
MixHamiltonian              T     # Default value
ReadHamiltonian              T     # Default value
FullRamp              T     # Default value
NumberLinearMix              1     # Default value
SkipLastIter              F     # Default value
CB.WriteComplexBands              F     # Default value
EM.addV              F     # Default value
CB.MaxKappa          0.000000000         # Default value
NTransmPoints                      200
InitTransmRange        -0.7349798845             Ry
# Above item originally: InitTransmRange         -10.00000000     eV        
FinalTransmRange         0.7349798845             Ry
# Above item originally: FinalTransmRange          10.00000000     eV        
VGate          0.000000000     Ry     # Default value
ZVGateR          0.000000000     Bohr     # Default value
ZVGateL          0.000000000     Bohr     # Default value
ZBroadeningG          1.000000000     Bohr     # Default value
BulkTransport              F     # Default value
InitTransport              F     # Default value
BulkLead     LR     # Default value
Sigma.InvertH1              F     # Default value
Sigma.InvertV              F     # Default value
Sigma.CSVD              F     # Default value
Sigma.Dkimag         0.1000000000E-05     # Default value
Sigma.DSVDMax         0.5000000000E-11     # Default value
Sigma.DSVDMin         0.1000000000E-14     # Default value
Sigma.DMax         0.1000000000E-04     # Default value
Sigma.RNoise          1.000000000         # Default value
Sigma.SkipSVD          1000.000000         # Default value
Sigma.ComplexBands              F     # Default value
Sigma.SVDTolZero         0.1000000000E-07     # Default value
Sigma.WideBandImag          0.000000000         # Default value
Sigma.DOSVV              F
TRC.LeadsDOS              T
TRC.LeadsPDOS              F
EM.LDOS3              F     # Default value
EM.LDOS2              F     # Default value
EM.LDOS              F     # Default value
EM.LDOSLeadsProjection              0     # Default value
EM.TransmissionRL              F     # Default value
EM.SpinTorqueK              F     # Default value
EM.SpinTorqueKScale          1.000000000         # Default value
EM.CurrentDensity              F     # Default value
EM.TRCSpinComponents              F     # Default value
EM.TRCSpinComponentsOribalSplit              0     # Default value
Ik_Select              0     # Default value
EM.TRCChannels              F     # Default value
EM.TRCChannelsWFS              F     # Default value
EM.TMatrix              F     # Default value
EM.TMatrixWFS              F     # Default value
EM.TMatrixPDOS              F     # Default value
EM.TMatrixPDOSNWrite             20     # Default value
EM.TRCMinChannelIndex              1     # Default value
EM.TRCMaxChannelIndex              0     # Default value
EM.TRCAddVCDFT              F     # Default value
EM.ParallelOverKNum              1     # Default value
TRC.EMDOS              T
TRC.EMPDOS              F
TRC.EMPDOSK              F     # Default value
TRC.SpecOverK              F     # Default value
CBS.SubSystem              F     # Default value
CBS.PrintWaveFunction              F     # Default value
EM.OrderN              F     # Default value
EM.Timings              F     # Default value
EM.WriteNk              F     # Default value
EM.TimeReversal              T     # Default value
EM.AddRhoGate              F     # Default value
EM.DebugRhoGate              F     # Default value
EM.NetRhoGateCharge          0.000000000         # Default value
EM.RhoGateLxMin        -0.1000000000E+11 Bohr     # Default value
EM.RhoGateLxMax        -0.1000000000E+11 Bohr     # Default value
EM.RhoGateLyMin        -0.1000000000E+11 Bohr     # Default value
EM.RhoGateLyMax        -0.1000000000E+11 Bohr     # Default value
EM.RhoGateLzMin        -0.1000000000E+11 Bohr     # Default value
EM.RhoGateLzMax        -0.1000000000E+11 Bohr     # Default value
EM.SetRhoBoundaryFromLeads              T     # Default value
EM.SetRhoBoundaryOverlapFromLeads              T     # Default value
EM.SetHBoundaryFromLeads              T     # Default value
EM.SetHLRZero              T     # Default value
EM.SetHLRZeroRatioLeft          1.000000000         # Default value
EM.SetHLRZeroRatioRight          1.000000000         # Default value
EM.NSetHBoundaryFromLeadsL              1     # Default value
EM.NSetHBoundaryFromLeadsR              1     # Default value

%block SaveBiasSteps                                                           
 0 5 10 15                                                                     
%endblock SaveBiasSteps                                                        
 
AtomicCoordinatesFormat     Ang                                                                                                                                 
AtomCoorFormatOut     Ang                        # Default value
LatticeConstant          1.889726878           Bohr
# Above item originally: LatticeConstant          1.000000000     Ang       
LDAUForces              T     # Default value
LDAU.units          1.000000000     Ry     # Default value
Print_ldau              T     # Default value
LDAU_METHOD              1     # Default value
Scissor.Operator              F     # Default value

%block SaveBiasSteps                                                           
 0 5 10 15                                                                     
%endblock SaveBiasSteps                                                        
 
SystemLabel     Au                                                                                                                                  
xc.functional     LDA                                                                                                                                 
xc.authors     CA                                                                                                                                  
Harris_functional              F     # Default value
DeltaWorkfunction          0.000000000     Ry     # Default value
WriteVNA              F     # Default value
PoissonMultigrid              F     # Default value
LatticeConstant          1.889726878           Bohr
# Above item originally: LatticeConstant          1.000000000     Ang       

%block LatticeVectors                                                          
  9.000   0.000   0.000	  1                                                    
  0.000   9.000   0.000   1                                                    
  0.000   0.000  22.400   1                                                    
%endblock LatticeVectors                                                       
 

%block LatticeVectors                                                          
  9.000   0.000   0.000	  1                                                    
  0.000   9.000   0.000   1                                                    
  0.000   0.000  22.400   1                                                    
%endblock LatticeVectors                                                       
 
DirectPhi              F     # Default value
HartreeLeadsLeft          0.000000000           Bohr
# Above item originally: HartreeLeadsLeft          0.000000000     Ang       
HartreeLeadsRight          0.000000000           Bohr
# Above item originally: HartreeLeadsRight          0.000000000     Ang       
HartreeLeadsBottom        -0.1322807535             Ry
# Above item originally: HartreeLeadsBottom         -1.799787400     eV        
SlabDipoleCorrection              F     # Default value

%block SaveBiasSteps                                                           
 0 5 10 15                                                                     
%endblock SaveBiasSteps                                                        
 
Sigma.PDOS              F
Sigma.SkipRight              F     # Default value
EnergyGridType     Traditional     # Default value
AM.MaxDepth             15     # Default value
AM.NumberDivisions              9     # Default value
TypeOfIntegral     gauss-legendre     # Default value
SIGMA.Save              0     # Default value
Sigma.WriteToDisk              F     # Default value
BS.Add              F     # Default value
BS.Method              0     # Default value
BS.MiddleOrbital              0     # Default value
BS.Tolerance         0.1000000000E-04     # Default value
BS.Minimum          0.000000000         # Default value
BS.WriteTransmission              F     # Default value
Current.WriteTransmission              F     # Default value
Sigma.Method              1     # Default value
Sigma.EImag          0.000000000         # Default value
AM.DeltaInit         0.1000000000E-02     # Default value
AM.DeltaToDe          1.500000000         # Default value
AM.Criterium          2.000000000         # Default value
SetEnergyRange              F     # Default value
SetEmin         -1.000000000         # Default value
SetEmax          1.000000000         # Default value
BS.Delta         0.1000000000E-03     # Default value
Sigma.Tolab         0.1000000000E-05     # Default value
BS.TypeOfRun              0     # Default value
BS.Skip              1     # Default value
BS.ESkip              1     # Default value
BS.SetOccupation              1     # Default value
EM.NProcessorsInverse              1     # Default value
EM.NProcessorsDistributeMatrices              1     # Default value
EM.InverseSolver              1     # Default value
Sigma.Nx              1     # Default value
Sigma.Ny              1     # Default value
Sigma.OverwriteHS              T     # Default value
EM.OneKP              0     # Default value
EM.RotateSpinLeadsLeft.Theta          0.000000000         # Default value
EM.RotateSpinLeadsLeft.Phi          0.000000000         # Default value
EM.RotateSpinLeadsRight.Theta          0.000000000         # Default value
EM.RotateSpinLeadsRight.Phi          0.000000000         # Default value
TransmissionOverK              F
TransmissionEmbed              F
Sigma.WriteEV              F     # Default value
Sigma.SkipTransmission              F     # Default value
Sigma.WarnInOutput         0.1000000000E-04 Ry     # Default value
DeltaTransmission          0.000000000         # Default value
TRCDEAuto              F     # Default value
Sigma.CheckAccuracy              F     # Default value
Sigma.Write              F     # Default value
TRCDE          0.000000000     Ry     # Default value
TRCScaleEf              T
EM.CalculateForces              F     # Default value
BS.Subsystems              2     # Default value

%block SaveBiasSteps                                                           
 0 5 10 15                                                                     
%endblock SaveBiasSteps                                                        
 

%block SaveBiasSteps                                                           
 0 5 10 15                                                                     
%endblock SaveBiasSteps                                                        
 
SystemLabel     Au                                                                                                                                  
LatticeConstant          1.889726878           Bohr
# Above item originally: LatticeConstant          1.000000000     Ang       

%block LatticeVectors                                                          
  9.000   0.000   0.000	  1                                                    
  0.000   9.000   0.000   1                                                    
  0.000   0.000  22.400   1                                                    
%endblock LatticeVectors                                                       
 

%block LatticeVectors                                                          
  9.000   0.000   0.000	  1                                                    
  0.000   9.000   0.000   1                                                    
  0.000   0.000  22.400   1                                                    
%endblock LatticeVectors                                                       
 
SystemLabel     Au                                                                                                                                  

%block SaveBiasSteps                                                           
 0 5 10 15                                                                     
%endblock SaveBiasSteps                                                        
 

%block SaveBiasSteps                                                           
 0 5 10 15                                                                     
%endblock SaveBiasSteps                                                        
 
SystemLabel     Au                                                                                                                                  
LatticeConstant          1.889726878           Bohr
# Above item originally: LatticeConstant          1.000000000     Ang       

%block LatticeVectors                                                          
  9.000   0.000   0.000	  1                                                    
  0.000   9.000   0.000   1                                                    
  0.000   0.000  22.400   1                                                    
%endblock LatticeVectors                                                       
 

%block LatticeVectors                                                          
  9.000   0.000   0.000	  1                                                    
  0.000   9.000   0.000   1                                                    
  0.000   0.000  22.400   1                                                    
%endblock LatticeVectors                                                       
 

%block SaveBiasSteps                                                           
 0 5 10 15                                                                     
%endblock SaveBiasSteps                                                        
 

%block SaveBiasSteps                                                           
 0 5 10 15                                                                     
%endblock SaveBiasSteps                                                        
 
SystemLabel     Au                                                                                                                                  
LatticeConstant          1.889726878           Bohr
# Above item originally: LatticeConstant          1.000000000     Ang       

%block LatticeVectors                                                          
  9.000   0.000   0.000	  1                                                    
  0.000   9.000   0.000   1                                                    
  0.000   0.000  22.400   1                                                    
%endblock LatticeVectors                                                       
 

%block LatticeVectors                                                          
  9.000   0.000   0.000	  1                                                    
  0.000   9.000   0.000   1                                                    
  0.000   0.000  22.400   1                                                    
%endblock LatticeVectors                                                       
 

%block SaveBiasSteps                                                           
 0 5 10 15                                                                     
%endblock SaveBiasSteps                                                        
 

%block SaveBiasSteps                                                           
 0 5 10 15                                                                     
%endblock SaveBiasSteps                                                        
 
SystemLabel     Au                                                                                                                                  
LatticeConstant          1.889726878           Bohr
# Above item originally: LatticeConstant          1.000000000     Ang       

%block LatticeVectors                                                          
  9.000   0.000   0.000	  1                                                    
  0.000   9.000   0.000   1                                                    
  0.000   0.000  22.400   1                                                    
%endblock LatticeVectors                                                       
 

%block LatticeVectors                                                          
  9.000   0.000   0.000	  1                                                    
  0.000   9.000   0.000   1                                                    
  0.000   0.000  22.400   1                                                    
%endblock LatticeVectors                                                       
 

%block SaveBiasSteps                                                           
 0 5 10 15                                                                     
%endblock SaveBiasSteps                                                        
 

%block SaveBiasSteps                                                           
 0 5 10 15                                                                     
%endblock SaveBiasSteps                                                        
 
SystemLabel     Au                                                                                                                                  
LatticeConstant          1.889726878           Bohr
# Above item originally: LatticeConstant          1.000000000     Ang       

%block LatticeVectors                                                          
  9.000   0.000   0.000	  1                                                    