 # Version information for this restart file 
 # current date 2022-07-12 19:40:55.464
 # current working dir /rds/general/user/jj1921/home/junction/MD/wireless
 # Program compiled at                              Thu 12 Jul 13:52:12 BST 2018
 # Program compiled on                                      build-2.hpc.ic.ac.uk
 # Program compiled for                                       Linux-x86-64-intel
 # Source code revision number                                         svn:18464
 &GLOBAL
   PRINT_LEVEL  LOW
   PROJECT_NAME Au_MD
   RUN_TYPE  MD
 &END GLOBAL
 &MOTION
   &MD
     ENSEMBLE  NVT
     STEPS  100000000
     TIMESTEP     4.9999999999999989E-01
     STEP_START_VAL  66921620
     TIME_START_VAL     3.3460810049743615E+07
     ECONS_START_VAL     7.0618000605311977E+00
     TEMPERATURE     3.0000000000000000E+02
     &THERMOSTAT
       TYPE  CSVR
       &CSVR
         TIMECON     9.9999999999999955E+02
         &THERMOSTAT_ENERGY
               9.7231811666680290E+00
         &END THERMOSTAT_ENERGY
         &RNG_INIT
Wiener process for Thermostat # 1        1 F T F   1.0328006029628891E+00        3120972876.0          87445864.0        2209685733.0         993161252.0        1529400731.0        1099843525.0             12345.0             12345.0             12345.0             12345.0             12345.0             12345.0             12345.0             12345.0             12345.0             12345.0             12345.0             12345.0
         &END RNG_INIT
       &END CSVR
     &END THERMOSTAT
     &AVERAGES  T
       &RESTART_AVERAGES
         ITIMES_START  1
         AVECPU     1.1616110658966399E-02
         AVEHUGONIOT     0.0000000000000000E+00
         AVETEMP_BARO     0.0000000000000000E+00
         AVEPOT    -2.9895623536430920E+00
         AVEKIN     7.3443687011419223E-01
         AVETEMP     3.0021559102556637E+02
         AVEKIN_QM     0.0000000000000000E+00
         AVETEMP_QM     0.0000000000000000E+00
         AVEVOL     5.6045166884840211E+04
         AVECELL_A     3.3659572099225912E+01
         AVECELL_B     2.9150044490419511E+01
         AVECELL_C     5.7120283496574437E+01
         AVEALPHA     9.0000000000000000E+01
         AVEBETA     9.0000000000000000E+01
         AVEGAMMA     9.0000000000000000E+01
         AVE_ECONS     5.8063830740501544E+01
         AVE_PRESS    -6.0985389581081438E+02
         AVE_PXX    -5.8513529939956209E+02
       &END RESTART_AVERAGES
     &END AVERAGES
     &PRINT
       &ENERGY  ON
         &EACH
           MD  10000
         &END EACH
       &END ENERGY
     &END PRINT
   &END MD
   &CONSTRAINT
     &FIXED_ATOMS
       COMPONENTS_TO_FIX  XYZ
       MOLNAME MOL2
     &END FIXED_ATOMS
   &END CONSTRAINT
   &PRINT
     &TRAJECTORY  ON
       &EACH
         MD  10000
       &END EACH
     &END TRAJECTORY
     &VELOCITIES  ON
       &EACH
         MD  10000
       &END EACH
     &END VELOCITIES
     &STRESS  ON
       &EACH
         MD  10000
       &END EACH
     &END STRESS
     &RESTART_HISTORY  OFF
     &END RESTART_HISTORY
   &END PRINT
 &END MOTION
 &FORCE_EVAL
   METHOD  FIST
   STRESS_TENSOR  ANALYTICAL
   &MM
     &FORCEFIELD
       IGNORE_MISSING_CRITICAL_PARAMS  T
       &SPLINE
         R0_NB     5.0000000000000003E-02
         EMAX_SPLINE     3.0000000000000000E+10
         EMAX_ACCURACY     1.0000000000000000E-03
         UNIQUE_SPLINE  T
       &END SPLINE
       &NONBONDED
         &LENNARD-JONES
           ATOMS O O
           EPSILON     7.6526013430485477E+01
           SIGMA     3.1507000000000001E+00
           RCUT     1.0000000000000005E+01
         &END LENNARD-JONES
         &LENNARD-JONES
           ATOMS O H
           EPSILON     4.2069103146440092E+01
           SIGMA     1.7750000000000006E+00
           RCUT     1.0000000000000005E+01
         &END LENNARD-JONES
         &LENNARD-JONES
           ATOMS H H
           EPSILON     2.3138006730542052E+01
           SIGMA     4.0000000000000002E-01
           RCUT     1.0000000000000005E+01
         &END LENNARD-JONES
         &LENNARD-JONES
           ATOMS Au Au
           EPSILON     0.0000000000000000E+00
           SIGMA     0.0000000000000000E+00
           RCUT     0.0000000000000000E+00
         &END LENNARD-JONES
         &LENNARD-JONES
           ATOMS Au O
           EPSILON     4.3418268717536614E+02
           SIGMA     2.8330579239999998E+00
           RCUT     1.0000000000000005E+01
         &END LENNARD-JONES
         &LENNARD-JONES
           ATOMS Au H
           EPSILON     1.2027221251395182E+00
           SIGMA     3.5190499370000006E+00
           RCUT     1.0000000000000005E+01
         &END LENNARD-JONES
       &END NONBONDED
       &CHARGE
         ATOM O
         CHARGE    -8.3399999999999996E-01
       &END CHARGE
       &CHARGE
         ATOM H
         CHARGE     4.1699999999999998E-01
       &END CHARGE
       &CHARGE
         ATOM Au
         CHARGE     0.0000000000000000E+00
       &END CHARGE
       &BOND
         ATOMS O H
         KIND  HARMONIC
         K     4.0162846753307641E-01
         R0     1.8088458543981376E+00
       &END BOND
       &BEND
         ATOMS H O H
         KIND  HARMONIC
         K     1.7529615963481254E-01
         THETA0     1.8242181341844732E+00
       &END BEND
     &END FORCEFIELD
     &POISSON
       &EWALD
         EWALD_TYPE  SPME
         ALPHA     2.9999999999999999E-01
         GMAX  12
       &END EWALD
     &END POISSON
   &END MM
   &SUBSYS
     &CELL
       A     1.7811878396732908E+01    0.0000000000000000E+00    0.0000000000000000E+00
       B     0.0000000000000000E+00    1.5425539180689929E+01    0.0000000000000000E+00
       C     0.0000000000000000E+00    0.0000000000000000E+00    3.0226752151153697E+01
       PERIODIC  XYZ
       MULTIPLE_UNIT_CELL  1 1 1
       SYMMETRY  ORTHORHOMBIC
     &END CELL
     &COORD
H    9.5318761654041609E+01   -9.6231282584346729E+01    1.1403236788641170E+01
H    9.4115624249183540E+01   -9.5762511907596036E+01    1.0567691623785276E+01
O    9.5154907845201308E+01   -9.5771185358690019E+01    1.0562510214946585E+01
H    2.5182273647297080E+01   -6.7538072164441189E+01    7.4342012350563094E+00
H    2.5326098940436744E+01   -6.8917439269908272E+01    7.9842452458071502E+00
O    2.5892008310362133E+01   -6.8207941759503768E+01    7.5852540456342492E+00
H   -9.6244485554733625E+00   -3.6799152145371103E+01    1.3066717569146707E+01
H   -8.7154660065682741E+00   -3.7902855557593718E+01    1.2894542882709642E+01
O   -8.8933012536446032E+00   -3.7142162994627689E+01    1.3538040461481531E+01
H   -4.2810942177520630E+01    1.5630072591906170E+02    2.2850029989897020E+01
H   -4.3005695022004431E+01    1.5776414571654280E+02    2.2575622872025274E+01
O   -4.3495664986184664E+01    1.5694223872237106E+02    2.2663687319952619E+01
H    1.4517293643015367E+02    7.3649418956953298E+01    2.2778431579376040E+01
H    1.4616113686962450E+02    7.3438189026208164E+01    2.1590479328555027E+01
O    1.4592611606384835E+02    7.3109108241410553E+01    2.2487754628837639E+01
H    6.6974212871077071E+01    1.4616922279176461E+02    1.4337425979404758E+01
H    6.7003713389059243E+01    1.4662392836063759E+02    1.2899490533892960E+01
O    6.7587954829873581E+01    1.4625562156800990E+02    1.3556238204062375E+01
H    3.3738461182164536E+02    1.5973961541993191E+02    1.0057370522517731E+01
H    3.3867030333182845E+02    1.6032310025973632E+02    9.8221409035590277E+00
O    3.3828643906483762E+02    1.5960579778580956E+02    1.0231532931674323E+01
H    8.3212855862063265E+01    1.0322715605455099E+02    1.6798179718199243E+01
H    8.4261988684145052E+01    1.0261293877688246E+02    1.7899558119527200E+01
O    8.4138946027354550E+01    1.0333305882552497E+02    1.7226576523098945E+01
H   -8.9602179872014162E+01    9.3789936959103215E+01    1.0364715362344134E+01
H   -8.9828913777181128E+01    9.2708266082705833E+01    9.3778834486407465E+00
O   -9.0309426575502172E+01    9.3160068059527561E+01    1.0103062928555191E+01
H    8.1016934044033377E+01    1.5207048259486675E+02    1.0944827558609269E+01
H    8.1493519492632814E+01    1.5100866578572055E+02    1.2069110461310704E+01
O    8.0866559050172327E+01    1.5118174381992893E+02    1.1372673632299472E+01
H    1.3307170096032712E+02    1.6966294120861366E+02    2.2700975117463845E+01
H    1.3343226835246782E+02    1.7111991175885350E+02    2.2728789865751661E+01
O    1.3266971995473099E+02    1.7053379945632057E+02    2.2677378422838544E+01
H   -5.3590823181638029E+01    1.6616053770068743E+02    1.6923663766397198E+01
H   -5.3030409397408917E+01    1.6492981725271378E+02    1.6209927132798196E+01
O   -5.3195244803343165E+01    1.6592436832409979E+02    1.6063930465210873E+01
H    2.3716421616846938E+02    6.0845039635087964E+01    1.6033046410286829E+01
H    2.3815964452070813E+02    6.0290802951688391E+01    1.5076490853797882E+01
O    2.3753271134883138E+02    5.9954553266638797E+01    1.5765801049320221E+01
H   -3.3098375321912378E+01    6.9369231176199875E+01    9.1155427304252026E+00
H   -3.1992057155002069E+01    6.9706322102425489E+01    8.1894919266127495E+00
O   -3.2230577484329707E+01    6.9010840776294202E+01    8.8322719581188771E+00
H   -6.6091691643392538E+00    5.7704262204526700E+00    2.2914100114768569E+01
H   -5.3695503281916057E+00    4.9588170807930059E+00    2.2461270701533270E+01
O   -6.3143223110010283E+00    4.8824396142464552E+00    2.2705719574468059E+01
H    1.1251888195079822E+02    1.3799133414765328E+02    1.8858351429796461E+01
H    1.1260031982581944E+02    1.3924375651571302E+02    1.7982993895450438E+01
O    1.1200801335740366E+02    1.3864062413470950E+02    1.8453236937418396E+01
H   -1.5153119131684838E+02    9.2472125477483971E+01    7.4026050383455315E+00
H   -1.5246329375293604E+02    9.1345687283800800E+01    7.6140996270319850E+00
O   -1.5148159186397464E+02    9.1552682210087156E+01    7.6709159064476440E+00
H   -1.0925850538646695E+02    1.1557446880229151E+02    1.0186537317862481E+01
H   -1.1077934758739329E+02    1.1521319403047737E+02    1.0344297621256825E+01
O   -1.0997581977577180E+02    1.1502139847594140E+02    9.7886688657647891E+00
H   -1.6508505528314137E+02   -1.4125324973935356E+01    1.9979050366123012E+01
H   -1.6614530113262907E+02   -1.3270084625298324E+01    1.9625918784247379E+01
O   -1.6602564496889107E+02   -1.4223990323004470E+01    1.9707614072083867E+01
H   -3.6731944886551901E+01    3.4410083165100995E+00    2.1622658134087789E+01
H   -3.6356841443542727E+01    2.0589959494538617E+00    2.1278706574774393E+01
O   -3.7139104068723071E+01    2.5896280611105267E+00    2.1285265954567731E+01
H    3.3898357715330846E+01    2.5358655202639511E+01    1.0628603659004915E+01
H    3.5006418354301807E+01    2.4223881254088344E+01    1.0769679588705813E+01
O    3.4153461690684459E+01    2.4431151976229533E+01    1.0324193256218841E+01
H    1.8252006132874402E+02    4.7772947994562053E+01    8.4271497418537962E+00
H    1.8169087998509659E+02    4.7085577512588493E+01    7.4327880863746580E+00
O    1.8264659928231740E+02    4.7220222601302133E+01    7.6438670221549261E+00
H    4.9871351782003948E+01    2.1220779534415353E+01    1.2772464528319752E+01
H    4.9400047157104829E+01    2.0186603814802890E+01    1.1704152726368640E+01
O    5.0079453504539572E+01    2.0359750951033238E+01    1.2396595543837819E+01
H   -1.0483308741891923E+02    1.3690650195800714E+02    2.1506692953916048E+01
H   -1.0449628554898962E+02    1.3774962293839300E+02    2.2677539762359856E+01
O   -1.0513871491655516E+02    1.3697429552902125E+02    2.2449234772751510E+01
H    2.2905991111480876E+01   -2.4851561101542475E+02    7.6106327628636592E+00
H    2.3555707761131067E+01   -2.4719838352905799E+02    7.3431597506608046E+00
O    2.3800646471312614E+01   -2.4814347967643752E+02    7.4036096988339439E+00
H   -3.2425357107566413E+01    1.3397694873851469E+02    1.4150608208737298E+01
H   -3.2437632197221419E+01    1.3246146560974952E+02    1.3989467001740081E+01
O   -3.2985092143405872E+01    1.3322724066153205E+02    1.3907247254939737E+01
H    1.5725233598041109E+02    1.2596257317011585E+02    2.2435237462770093E+01
H    1.5615693082237297E+02    1.2695238712183512E+02    2.2627166138904190E+01
O    1.5634020478089286E+02    1.2598079031128067E+02    2.2750080161707356E+01
H    1.2037478212320747E+02    1.8850110517930742E+02    1.6461781991657826E+01
H    1.2102290376916100E+02    1.8982913214407171E+02    1.6607874863777479E+01
O    1.2014664599190426E+02    1.8940299210148038E+02    1.6695131801279071E+01
H    1.8720263463832970E+02   -3.9296411603017916E+01    7.1309633785106596E+00
H    1.8705829001487712E+02   -4.0627339369127363E+01    7.6947274762925817E+00
O    1.8769515690193549E+02   -3.9898800434528482E+01    7.6264967391302765E+00
H   -3.5192723861240651E+01   -8.4602262032113671E+01    1.2581924771209842E+01
H   -3.4365168714323886E+01   -8.3359215083538089E+01    1.2885505483344593E+01
O   -3.4891662401068871E+01   -8.3769170881542536E+01    1.2147754136089620E+01
H   -1.3461904841163374E+01    8.2834782669592045E+01    1.7794899775804158E+01
H   -1.2213875863414948E+01    8.3524513386209165E+01    1.7898111748423947E+01
O   -1.2541974167503710E+01    8.2617870506859049E+01    1.7992772066575199E+01
H   -1.9133032205526581E+02   -1.6596323730183002E+01    1.1416734718158246E+01
H   -1.9278983365305444E+02   -1.6359793688492566E+01    1.1300529641661976E+01
O   -1.9213369321263391E+02   -1.6995583275548650E+01    1.1078828728156452E+01
H    9.6675380449274562E-01   -1.6117409039778445E+02    2.2368555244381572E+01
H    9.4985559553421761E-01   -1.6262322856198739E+02    2.2791965507017373E+01
O    1.5716477192397100E+00   -1.6198048939613318E+02    2.2545038638840182E+01
H   -5.4396934959724476E+01   -1.6813220718685810E+02    7.2200988905916592E+00
H   -5.4164893915670312E+01   -1.6668071195127297E+02    7.4045667600378433E+00
O   -5.3663023727005942E+01   -1.6752171815942773E+02    7.4816388576581554E+00
H    3.0197812664140451E+02    1.2079939105032720E+02    1.8919894359908884E+01
H    3.0141628098032737E+02    1.1939584937938845E+02    1.8922156856378908E+01
O    3.0218250295442920E+02    1.1985446017561593E+02    1.8672699298132851E+01
H    5.0361449315004592E+01   -6.1221601196789614E+01    1.1325650986248339E+01
H    5.0610545799209774E+01   -6.1353267786705707E+01    1.2723186863767598E+01
O    5.0013449226385610E+01   -6.1725383294787882E+01    1.2060412150961435E+01
H    1.6839050717573028E+02   -2.9885780971149393E+02    1.9730374694775552E+01
H    1.6770623927754727E+02   -2.9959271302228029E+02    2.0834193737790578E+01
O    1.6789398710496039E+02   -2.9969727730112726E+02    1.9884422396334344E+01
H   -5.2492655691289549E+01    2.9164086095905429E+01    1.9032947319160094E+01
H   -5.1040625979124023E+01    2.9641265255151961E+01    1.9121151986432380E+01
O   -5.1695093334660655E+01    2.9006098655333535E+01    1.9597911726184140E+01
H    5.5841460801926438E+01    1.5717214571162151E+02    1.6300200814751285E+01
H    5.5367971980808043E+01    1.5825117272365659E+02    1.7150093521298086E+01
O    5.5003254476055865E+01    1.5758973882926210E+02    1.6547000089081205E+01
H    7.0026282500880669E+01   -9.2415702185468636E+00    1.7396105502837873E+01
H    6.9659218004658385E+01   -1.0723823320326483E+01    1.7284006293396800E+01
O    6.9583192573768926E+01   -9.8620989708331521E+00    1.6793450808994542E+01
H   -2.8218470238474314E+01   -2.7670956725177859E+01    2.0862771271697596E+01
H   -2.7821557206024021E+01   -2.6503739206382338E+01    1.9925365235752782E+01
O   -2.7985464894780481E+01   -2.7466648559593970E+01    1.9935892784361592E+01
H   -2.2289051439524361E+01    5.8133155577880672E+01    1.4832231594309842E+01
H   -2.1547658824382232E+01    5.7611860167660005E+01    1.5935006564374032E+01
O   -2.1399202520496470E+01    5.8211108080536413E+01    1.5209784465561796E+01
H    2.1295090843478590E+02   -1.0340897590456663E+01    7.6687479085634500E+00
H    2.1148910063084000E+02   -1.0362120783944620E+01    7.5079476239915630E+00
O    2.1221504364483454E+02   -1.0925495455520691E+01    7.8291709689533313E+00
H   -9.5661403608841518E+00    5.8508622586019150E+01    1.7287155870230819E+01
H   -8.5417932333934630E+00    5.9146780081283772E+01    1.8141655609101615E+01
O   -9.3075634686833890E+00    5.8472091133938989E+01    1.8236512690512122E+01
H    1.0767127016977055E+02    4.9916786664767532E+00    2.1653692426506449E+01
H    1.0649777071129508E+02    5.7483577068152121E+00    2.2366506232090209E+01
O    1.0687256165471948E+02    4.8436927448333087E+00    2.2201847486845161E+01
H    7.3451459659475191E+01    2.1762307240236336E+01    1.7031785764921139E+01
H    7.2863983168541353E+01    2.1483132346311077E+01    1.8391515984759174E+01
O    7.3635539587575408E+01    2.1235307149287991E+01    1.7811629162849588E+01
H    1.3623891038215086E+02    1.2485271839694406E+02    1.5838572323182287E+01
H    1.3505437245261842E+02    1.2484447330951612E+02    1.4893287990757416E+01
O    1.3551642502211934E+02    1.2543196707468368E+02    1.5482560086455983E+01
H    6.5254686011058700E+00   -2.5385419649123270E+02    1.7169504105245522E+01
H    6.4704912339704599E+00   -2.5353550799454285E+02    1.8659785621519980E+01
O    5.9131395820458650E+00   -2.5389922208930949E+02    1.7931564684249444E+01
H    2.2507262294401940E+02   -7.4045142106068155E+01    1.3283381710141278E+01
H    2.2442897135838029E+02   -7.3304146749837273E+01    1.4354554566956454E+01
O    2.2452874207931862E+02   -7.3264174391146128E+01    1.3422900210880904E+01
H    4.7729192508679056E+01    7.8223827936627032E+01    7.9607334869399340E+00
H    4.7244923244718002E+01    7.9529814305545543E+01    8.4836478763535812E+00
O    4.6903559919642625E+01    7.8659915659480276E+01    8.2734103852864482E+00
H   -1.4872405061867252E+02    1.4995920587863093E+01    2.0361459268688467E+01
H   -1.4828927756711758E+02    1.3665928767789035E+01    1.9779179324911574E+01
O   -1.4871066544584224E+02    1.4020159516909811E+01    2.0575913812233129E+01
H   -1.8255750637313980E+01   -1.2254462484121824E+02    2.2736768790169982E+01
H   -1.7489779086585333E+01   -1.2388247006149321E+02    2.2715691523719364E+01
O   -1.8414680586238497E+01   -1.2351190929179025E+02    2.2646730383312107E+01
H   -6.7151146987583776E-01    1.5233422816975371E+02    7.7447027681740535E+00
H   -1.7617565676412192E+00    1.5326454452586506E+02    7.4940981797928057E+00
O   -8.2470566574241555E-01    1.5328091217390445E+02    7.7855645766082242E+00
H    2.9626539565228008E+01   -8.4955106322249094E+01    1.9592316111346744E+01
H    2.8838057553684003E+01   -8.5860678759992851E+01    1.8685204086107579E+01
O    2.9241717181797249E+01   -8.5854516531632143E+01    1.9607475127253277E+01
H    1.1485492151178941E+02    5.3199698010906133E+01    1.9925677174218148E+01
H    1.1609615281341837E+02    5.2733544323925457E+01    2.0645799585048213E+01
O    1.1520354194069022E+02    5.2416702719691109E+01    2.0411163808146537E+01
H   -5.5498530236130726E+01   -7.9793857905967059E+01    1.4466491926471978E+01
H   -5.4060221790914291E+01   -8.0413531635210248E+01    1.4506495910769525E+01
O   -5.4697726687667981E+01   -7.9968426152773390E+01    1.3887677150993298E+01
H   -1.3198001939067672E+02    4.0184596155339406E+01    1.2787723036724246E+01
H   -1.3097429929653583E+02    4.1239545433097746E+01    1.2955288972558961E+01
O   -1.3101452825910917E+02    4.0319846842103971E+01    1.2685701191918010E+01
H   -1.0244887233893644E+02   -7.3889460295636027E+01    2.2952862275252947E+01
H   -1.0340047633579593E+02   -7.3111212415451647E+01    2.2202022445658166E+01
O   -1.0337007557798228E+02   -7.3931550125697044E+01    2.2716844156350213E+01
H    2.3109701975791955E+02   -1.1103373540658612E+01    1.1793584454981048E+01
H    2.2986603643200189E+02   -1.1032795768286119E+01    1.2530281608038882E+01
O    2.3068111114220068E+02   -1.1557044034272440E+01    1.2569938413791085E+01
H   -8.4285645722291275E-02   -1.9258752613682853E+02    1.7453353105599827E+01
H   -1.2492611055843414E+00   -1.9255098939309673E+02    1.8341165215987598E+01
O   -4.5104552591111274E-01   -1.9309997003718775E+02    1.8226112206318586E+01
H    2.2797656058115169E+02   -1.1190129284017407E+02    8.2042668068514679E+00
H    2.2943913731271832E+02   -1.1126616815314497E+02    8.0462874300030034E+00
O    2.2857207286074686E+02   -1.1120258212589553E+02    8.4896064857826303E+00
H    1.7588847433889963E+01    6.4363168121866181E+01    1.8769011486859029E+01
H    1.7753992286890771E+01    6.4994234219715111E+01    1.7469993266492487E+01
O    1.7071432894372517E+01    6.4618944370701357E+01    1.7987747032785713E+01
H   -1.9824387398081207E+01   -2.1379482294244454E+02    1.6503443441865734E+01
H   -2.0636136886829053E+01   -2.1400316570015866E+02    1.5300356846825574E+01
O   -2.0789858223711697E+01   -2.1389231470464946E+02    1.6273042246211364E+01
H    3.3718395021949597E+01    2.2476665690954704E+02    8.5846337240062489E+00
H    3.2762641080593845E+01    2.2515428392256743E+02    7.4849245737176524E+00
O    3.3649110863345001E+01    2.2491479421344474E+02    7.6404599659555492E+00
H   -1.8179851776419031E+02    1.5731796140441929E+02    7.3044769276172321E+00
H   -1.8242366862581457E+02    1.5862871850667653E+02    7.5236886101363316E+00
O   -1.8254117969227556E+02    1.5771064413340756E+02    7.7500979156642096E+00
H   -1.7208449933301864E+02    1.4308186807658155E+01    2.1183746170942012E+01
H   -1.7171016029578487E+02    1.4961943113419226E+01    2.2385455868050915E+01
O   -1.7240696844147334E+02    1.4354231506295241E+01    2.2085330237635770E+01
H   -3.8217649359453667E+01   -5.6134029479520130E+01    2.2399047687573429E+01
H   -3.9605197570684332E+01   -5.5434353433171388E+01    2.2522885109939054E+01
O   -3.9173145021526885E+01   -5.6346760381566114E+01    2.2443233888962791E+01
H   -1.4185677925182702E+01   -6.0630239850637530E+01    2.2777435794263269E+01
H   -1.3555731104499836E+01   -6.1915211693222830E+01    2.2444104230791506E+01
O   -1.4441788517162790E+01   -6.1501423263185636E+01    2.2535615940307380E+01
H   -5.3447294995648441E+01    1.5322110583224307E+02    1.3277515963701200E+01
H   -5.2316452323109637E+01    1.5383223399593129E+02    1.3957945497046097E+01
O   -5.2996398412211462E+01    1.5405719430126609E+02    1.3349846472007492E+01
H    8.4147031337259023E+01    2.1379952466538916E+02    1.0462931936703617E+01
H    8.4875212375363631E+01    2.1446217361593460E+02    1.1573673606991653E+01
O    8.4274232657489193E+01    2.1372778224497338E+02    1.1441170931163020E+01
H   -4.7735672946264799E+01   -1.1494350084572189E+02    2.1932362008651669E+01
H   -4.7028276153573401E+01   -1.1404890012267947E+02    2.2783390177047817E+01
O   -4.6847175736563848E+01   -1.1486902500430460E+02    2.2286428388794597E+01
H   -2.9850507852190592E+01   -8.0044557134413253E+01    1.9947740604157858E+01
H   -2.8428706354827735E+01   -7.9947322778203969E+01    1.9232413047398648E+01
O   -2.9071272217157549E+01   -7.9435341085290901E+01    1.9803425840529375E+01
H    8.8016236695047823E+01    7.7980135819894031E+01    1.3798778233665418E+01
H    8.7751161998451209E+01    7.9420618490373755E+01    1.3251038024468762E+01
O    8.7342416905117830E+01    7.8721767888357732E+01    1.3707081141105778E+01
H   -3.1661504981809362E+01    1.5743644253285788E+02    1.2458310396566022E+01
H   -3.2569500165868128E+01    1.5865980561338719E+02    1.2564435352183430E+01
O   -3.1939229516256287E+01    1.5830014867112371E+02    1.2008824466765047E+01
H   -2.2494471020930135E+02    1.9705731803116575E+02    7.1818511645037484E+00
H   -2.2493856870535720E+02    1.9661322581041611E+02    8.5540962314430740E+00
O   -2.2498866690400402E+02    1.9622164386461554E+02    7.6981007925836717E+00
H   -1.7564888606481907E+02   -9.2106302694993488E+01    1.6554632049423883E+01
H   -1.7458363544174972E+02   -9.2733792490687023E+01    1.7522639569738644E+01
O   -1.7555222358123370E+02   -9.2608849496374020E+01    1.7429241811094180E+01
H   -3.4438382491162622E+02    8.4344589372218749E+01    1.6631079107153958E+01
H   -3.4337570656158732E+02    8.3228404824599465E+01    1.6470121273767145E+01
O   -3.4346729980850000E+02    8.4211982725430687E+01    1.6314647144338117E+01
H    4.7886136734791386E+01   -1.0571018992644647E+02    1.1472851306579448E+01
H    4.8260121963290558E+01   -1.0698279837979975E+02    1.2209318713264226E+01
O    4.7481625371587171E+01   -1.0641359676535377E+02    1.2032955525941190E+01
H   -1.1525610616443562E+02   -2.2377281470224284E+02    1.7147094952939504E+01
H   -1.1506250200508592E+02   -2.2531165558287921E+02    1.7435071117135070E+01
O   -1.1457864394730689E+02   -2.2444645258849226E+02    1.7327848755248294E+01
H    7.5814828227563993E+01    4.8763058862396306E+01    1.5861235021848337E+01
H    7.5028080783531649E+01    4.8327025069680211E+01    1.4630196311297563E+01
O    7.4999110777571971E+01    4.8358552801263997E+01    1.5581024328501025E+01
H   -1.0158187929282110E+02    5.1987580545348379E+01    2.2085054734589285E+01
H   -1.0259883364826544E+02    5.3108719840662957E+01    2.2126492631643202E+01
O   -1.0253913256516493E+02    5.2135805561770162E+01    2.2057025491474342E+01
H   -6.7725443386837739E+01    2.5741047550471400E+01    9.4737794751271149E+00
H   -6.8523629999306266E+01    2.6188052832923223E+01    1.0663109274397918E+01
O   -6.7651155103117517E+01    2.6017284958940728E+01    1.0427521713582601E+01
H    8.4471268433430055E+01    6.8201276204713368E+00    7.1468088257502256E+00
H    8.5513441308395855E+01    6.5104892561990066E+00    8.2871284112537769E+00
O    8.5196038571034066E+01    6.1399579274915972E+00    7.4263189186712992E+00
H    1.0306089899910505E+01    1.2247945126958918E+02    2.2983401392809267E+01
H    1.0004124830680819E+01    1.2185395245204218E+02    2.1689071107865104E+01
O    9.5980993127936021E+00    1.2200052594313588E+02    2.2558411794052397E+01
H   -1.1699458718962623E+02    2.5622376173498162E+02    1.6014321668291799E+01
H   -1.1623859614039053E+02    2.5513511194561065E+02    1.5346810292900939E+01
O   -1.1666220574325999E+02    2.5532435699396447E+02    1.6183688760262598E+01
H    5.5260217403921466E+01    1.7019467012398163E+01    1.1358509401651650E+01
H    5.5129113714613034E+01    1.5922960555772150E+01    1.2473011220923153E+01
O    5.5792972208811833E+01    1.6389879750056068E+01    1.1937647203148719E+01
H   -1.1497479495278813E+02   -2.2131322532355881E+02    1.6744515122092707E+01
H   -1.1472111494232139E+02   -2.2055603255582085E+02    1.5467530044368935E+01
O   -1.1422378486453010E+02   -2.2088420263776382E+02    1.6329983522166774E+01
H   -6.6755767355745789E+01    2.5334706376571583E+02    1.2664621488198430E+01
H   -6.6073854173912110E+01    2.5285105503466355E+02    1.3941429644833628E+01
O   -6.6791520162470988E+01    2.5346524005987607E+02    1.3616148426910526E+01
H    3.9169503312397566E+01   -4.8200866379765017E+01    9.0208588603535951E+00
H    3.8547500217150990E+01   -4.7477002717265400E+01    7.8135541514145217E+00
O    3.9050090724026724E+01   -4.8310949500293866E+01    8.0816730493992424E+00
H   -6.8965743728841474E+01   -3.5596400782354937E+02    1.6286043587482826E+01
H   -6.9984481470202141E+01   -3.5687494428882604E+02    1.5626255527887233E+01
O   -6.9234803113992555E+01   -3.5640009468990127E+02    1.5429897881399553E+01
H   -1.2310711785441389E+02   -2.1196208418471826E+01    8.5085788668405620E+00
H   -1.2346783590880912E+02   -2.1472518171316544E+01    9.8709217294102523E+00
O   -1.2344921895191834E+02   -2.1940637361625072E+01    9.0473754494059726E+00
H    2.8771720003351771E+01    4.0212025816154885E+01    7.5334998496227321E+00
H    2.7379644541471233E+01    4.0700089374386046E+01    7.8979283394218065E+00
O    2.8217291724793046E+01    4.1058601015555695E+01    7.5452451303186878E+00
H   -6.5174291476463594E+01    1.9186191683270707E+01    1.7257881606709550E+01
H   -6.3780244363189972E+01    1.9410511013180805E+01    1.6790959002424813E+01
O   -6.4533070166263329E+01    1.8850234653464394E+01    1.6551844457993898E+01
H    1.1589099381596466E+02   -7.3553220463454878E+01    1.3035832798205252E+01
H    1.1529280048505028E+02   -7.5022612901901852E+01    1.2860247557551844E+01
O    1.1512305852905563E+02   -7.4070377077544222E+01    1.2682112121756971E+01
H    1.8679108366471363E+02   -1.2797227482490590E+02    1.0704123103863687E+01
H    1.8541554329425637E+02   -1.2851224529197049E+02    1.0339992083869776E+01
O    1.8623733597206717E+02   -1.2879285561859874E+02    1.0723373814001231E+01
H    1.3700879135804016E+02   -2.9364141585188133E+02    1.5570638531675229E+01
H    1.3803891286007814E+02   -2.9424182190280305E+02    1.4721733583594613E+01
O    1.3708396025164285E+02   -2.9422181377839411E+02    1.4786121329655861E+01
H   -9.3727822862683425E+01   -5.7965146702752236E+01    9.6596546439660660E+00
H   -9.5130299531771968E+01   -5.7693463672857796E+01    1.0354066319852098E+01
O   -9.4109798984970041E+01   -5.7603458458480468E+01    1.0518379264485953E+01
H    2.6133904168069711E+02    1.1547475394558734E+02    8.9850010419997215E+00
H    2.6045957243261637E+02    1.1513030740660042E+02    7.7702815745777185E+00
O    2.6120498164686103E+02    1.1575730088381316E+02    8.0654947788551574E+00
H    1.3378652295558146E+02   -1.6218661548278112E+02    2.2887392658468258E+01
H    1.3501489262098215E+02   -1.6142796474677294E+02    2.2505496519120499E+01
O    1.3472444912515698E+02   -1.6231592904853485E+02    2.2773510189943579E+01
H    1.1056650811773162E+02    1.8077409325429508E+02    1.9409359353936868E+01
H    1.1006859852462203E+02    1.8203198713164986E+02    1.9929553516792520E+01
O    1.1089635856341268E+02    1.8158667498133724E+02    1.9875386128696327E+01
H   -2.5074937919307899E+02   -4.0095896495315579E+01    1.4772019295839300E+01