
#FDF: Opened INPUT_TMP            for input. Unit: 12

fdf-debug              0     # Default value
SystemName     mol                                                                                                                                 
SystemLabel     mol                                                                                                                                 
alloc_report_level              0     # Default value
user-basis              F     # Default value
user-basis-netcdf              F     # Default value
PAO.BasisSize     standard            # Default value
PAO.BasisType     split                                                                                                                               
Number_of_species                        1

%block ChemicalSpeciesLabel                                                    
 1    1   H                                                                    
%endblock ChemicalSpeciesLabel                                                 
 

%block PAO.Basis                           # basis                             
H     2      0.00                                                              
 n=1    0    2   E      2.07      0.50                                         
   5.75  1.5                                                                   
   1.000   1.000                                                               
 n=2    1    1   E      0.89      0.01                                         
   5.500                                                                       
   1.000                                                                       
%endblock PAO.Basis                                                            
 

%block Ps.lmax                                                                 
  H     3                                                                      
%endblock Ps.lmax                                                              
 
PS.SIC              F     # Default value
ProjectionMethod     Zeta     # Default value
SIC.Flavour     Pseudo     # Default value
SIC.Lambda         0.5000000000         # Default value
SIC.NoRelaxation              F     # Default value
SIC.Rot_Inv              F     # Default value
WriteProjections              T     # Default value
ProjectionInSCF              F     # Default value
SIC.PopKgridFactor              1     # Default value
SIC.PopDMConv         0.1000000000E-03     # Default value
SIC.PopSmatSparsity         0.1000000000E-03     # Default value
SIC.ProjectionMode     SaveTime     # Default value
SIC.Npop              1     # Default value
SpinOrbit              F     # Default value
xc.functional     GGA                                                                                                                                 
xc.authors     PBE                                                                                                                                 
PAO.EnergyShift         0.2000000000E-01 Ry     # Default value
PAO.SplitNorm         0.1500000000    
PAO.SplitNorm         0.1500000000    
PAO.BasisType     split                                                                                                                               
CDFT              F     # Default value
CDFT.MaxIter              1     # Default value
LatticeConstant          1.889726878           Bohr
# Above item originally: LatticeConstant          1.000000000     Ang       

%block LatticeVectors                                                          
         20.00000        0.00000000       0.00000000                           
         0.00000        20.0000000        0.00000000                           
         0.00000000      0.00000000      20.0000                               
%endblock LatticeVectors                                                       
 

%block LatticeVectors                                                          
         20.00000        0.00000000       0.00000000                           
         0.00000        20.0000000        0.00000000                           
         0.00000000      0.00000000      20.0000                               
%endblock LatticeVectors                                                       
 
AtomicCoordinatesFormat     Ang                                                                                                                                 
NumberOfAtoms                        2

%block AtomicCoordinatesAndAtomicSpecies                                       
    0.00000000    0.00000000   -0.00998254   1  H          1                   
    0.00000000    0.00000000    0.73998166   1  H          2                   
%endblock AtomicCoordinatesAndAtomicSpecies                                    
 
SpinPolarized              F     # Default value
NonCollinearSpin              F     # Default value
SpinOrbit              F     # Default value
LongOutput              F     # Default value
NumberOfSpecies                        1
WriteDenchar              F     # Default value
WriteMullikenPop                        1
MeshCutoff          800.0000000             Ry
# Above item originally: MeshCutoff          800.0000000     Ry        
NetCharge          0.000000000         # Default value
MaxSCFIterations                      300
DM.NumberPulay                        6
DM.MixSCF1              F     # Default value
DM.PulayOnFile              F     # Default value
DM.MixingWeight         0.2000000000E-01
DM.NumberKick              0     # Default value
DM.KickMixingWeight         0.5000000000         # Default value
DM.Tolerance         0.2000000000E-04
UseSaveData              F     # Default value
DM.UseSaveDM              T
NeglNonOverlapInt              F     # Default value
SolutionMethod     diagon                                                                                                                              
DiagMemory          2.000000000         # Default value
DiagScale          1.500000000         # Default value
TryMemoryIncrease              T     # Default value
ElectronicTemperature         0.1900069269E-02         Ry
# Above item originally: ElectronicTemperature          300.0000000     K         
FixSpin              F     # Default value
ON.MaxNumIter           1000     # Default value
ON.etol         0.1000000000E-07     # Default value
ON.eta          0.000000000     Ry     # Default value
On.RcLWF          9.500000000     Bohr     # Default value
UseSaveData              F     # Default value
ON.UseSaveLWF              F     # Default value
ON.functional     kim               # Default value
ON.ChemicalPotential              F     # Default value
ON.ChemicalPotentialUse              F     # Default value
ON.ChemicalPotentialRc          9.500000000     Bohr     # Default value
ON.ChemicalPotentialTemperature         0.5000000075E-01 Ry     # Default value
ON.ChemicalPotentialOrder            100     # Default value
MD.VariableCell              F
MD.TypeOfRun     cg                                                                                                                                  
MD.LengthTimeStep          1.000000000             fs
# Above item originally: MD.LengthTimeStep          1.000000000     fs        
UseSaveData              F     # Default value
MD.UseSaveCG              F     # Default value
MD.NumCGsteps                      300
MD.NumNEBsteps              1     # Default value
MD.MaxCGDispl         0.1511781502           Bohr
# Above item originally: MD.MaxCGDispl         0.8000000000E-01 Ang       
MD.MaxForceTol         0.3889316143E-03    Ry/Bohr
# Above item originally: MD.MaxForceTol         0.1000000000E-01 eV/Ang    
MD.MaxStressTol         0.6797726840E-05 Ry/Bohr**3
# Above item originally: MD.MaxStressTol         0.1000000000     Gpa       
MD.InitialTimeStep                        1
MD.FinalTimeStep                       10
MD.Quench              F     # Default value
MD.InitialTemperature          100.0000000              K
# Above item originally: MD.InitialTemperature          100.0000000     K         
MD.TargetTemperature          100.0000000              K
# Above item originally: MD.TargetTemperature          100.0000000     K         
MD.TargetPressure          0.000000000     Ry/Bohr**3     # Default value
MD.NoseMass          100.0000000     Ry*fs**2     # Default value
MD.ParrinelloRahmanMass          100.0000000     Ry*fs**2     # Default value
MD.AnnealOption     TemperatureAndPressure     # Default value
MD.TauRelax          100.0000000     fs     # Default value
MD.BulkModulus          100.0000000         # Default value
MD.FCDispl         0.3779453756E-01       Bohr
# Above item originally: MD.FCDispl         0.2000000000E-01 ang       
MD.Timing              F     # Default value
MD.FCAcousticSumRule              T     # Default value
MD.FCIR              T
MD.FCEigenVectors              T
MD.FCRead              F
MD.FCFirst              1     # Default value
MD.FCLast              2     # Default value
MD.FCAtomRestart                       46
MD.FCAxisRestart                        1
Harris_functional              F     # Default value
WriteEDM              F     # Default value
WriteKpoints              F     # Default value
WriteForces              T
WriteDM              T     # Default value
WriteEigenvalues              F     # Default value
WriteBands              F     # Default value
WriteKbands              F     # Default value
WriteCoorStep              T
WriteCoorInitial              T     # Default value
WriteMDhistory              F     # Default value
WriteMDXmol              F     # Default value
UseSaveData              F     # Default value
MD.UseSaveXV              F     # Default value
MD.UseSaveNEB              F     # Default value
NEB.SkipEdge              F     # Default value
SaveHS              F
FixAuxillaryCell              F     # Default value
ReInitialiseDM              F     # Default value
SignatureRecords              F     # Default value
MullikenInSCF              F     # Default value
BuildSuperCell              F     # Default value
ReadKPIN              F     # Default value
TimeReversal              T     # Default value
WriteSpinSCF              F     # Default value
WriteSpinMulliken              F     # Default value
WarningMinimumAtomicDistance          1.000000000     Bohr     # Default value
STT.Calculation              F     # Default value
STT.LinearResponse              F     # Default value
RotateSpin.Theta          0.000000000         # Default value
RotateSpin.Phi          0.000000000         # Default value
NC.OrbitalRotationStart              1     # Default value
NC.OrbitalRotationEnd             -1     # Default value
processorY              2     # Default value
blocksize              2     # Default value

%block kgrid_Monkhorst_Pack                                                    
  1   0   0    0.0                                                             
  0   1   0    0.0                                                             
  0   0   1    0.0                                                             
%endblock kgrid_Monkhorst_Pack                                                 
 
LongOutput              F     # Default value
WriteWaveFunctions              F     # Default value
EM.PrintLimits              F     # Default value
EMTransport              F     # Default value
NEnergReal           6000     # Default value
NenergImCircle             16     # Default value
NenergImLine             16     # Default value
NPoles             16     # Default value
VInitial          0.000000000     Ry     # Default value
VFinal          0.000000000     Ry     # Default value
NIVPoints              0     # Default value
Delta         0.1000000000E-09     # Default value
EnergLowestBound         -7.000000000     Ry     # Default value
SpinConfLeads              0     # Default value
AtomLeftVcte              1     # Default value
AtomRightVcte              2     # Default value
ZLeftVcte          0.000000000     Bohr     # Default value
ZRightVcte          0.000000000     Bohr     # Default value
NSlices              1     # Default value
TrCoefficients              F     # Default value
SetBulkTransvCell              F     # Default value
Sigma.DSigmaDE              F     # Default value
BulkTransvCellSize              3     # Default value
BulkTransvCellSizeX              3     # Default value
BulkTransvCellSizeY              3     # Default value
MixHamiltonian              T     # Default value
ReadHamiltonian              T     # Default value
FullRamp              T     # Default value
NumberLinearMix              1     # Default value
SkipLastIter              F     # Default value
CB.WriteComplexBands              F     # Default value
EM.addV              F     # Default value
CB.MaxKappa          0.000000000         # Default value
NTransmPoints            100     # Default value
InitTransmRange        -0.3675000000     Ry     # Default value
FinalTransmRange        -0.3675000000     Ry     # Default value
VGate          0.000000000     Ry     # Default value
ZVGateR          0.000000000     Bohr     # Default value
ZVGateL          0.000000000     Bohr     # Default value
ZBroadeningG          1.000000000     Bohr     # Default value
MD.TRCSkip              0     # Default value
MD.TRCSampling              1     # Default value
BulkTransport              F     # Default value
InitTransport              F     # Default value
BulkLead     LR     # Default value
Sigma.InvertH1              F     # Default value
Sigma.InvertV              F     # Default value
Sigma.CSVD              F     # Default value
Sigma.Dkimag         0.1000000000E-05     # Default value
Sigma.DSVDMax         0.5000000000E-11     # Default value
Sigma.DSVDMin         0.1000000000E-14     # Default value
Sigma.DMax         0.1000000000E-04     # Default value
Sigma.RNoise          1.000000000         # Default value
Sigma.SkipSVD          1000.000000         # Default value
Sigma.ComplexBands              F     # Default value
Sigma.SVDTolZero         0.1000000000E-07     # Default value
Sigma.WideBandImag          0.000000000         # Default value
Sigma.DOSVV              F     # Default value
TRC.LeadsDOS              F     # Default value
TRC.LeadsPDOS              F     # Default value
EM.LDOS3              F     # Default value
EM.LDOS2              F     # Default value
EM.LDOS              F     # Default value
EM.LDOSLeadsProjection              0     # Default value
EM.TransmissionRL              F     # Default value
EM.SpinTorqueK              F     # Default value
EM.SpinTorqueKScale          1.000000000         # Default value
EM.CurrentDensity              F     # Default value
EM.TRCSpinComponents              F     # Default value
EM.TRCSpinComponentsOribalSplit              0     # Default value
Ik_Select              0     # Default value
EM.TRCChannels              F     # Default value
EM.TRCChannelsWFS              F     # Default value
EM.TMatrix              F     # Default value
EM.TMatrixWFS              F     # Default value
EM.TMatrixPDOS              F     # Default value
EM.TMatrixPDOSNWrite             20     # Default value
EM.TRCMinChannelIndex              1     # Default value
EM.TRCMaxChannelIndex              0     # Default value
EM.TRCAddVCDFT              F     # Default value
EM.ParallelOverKNum              1     # Default value
TRC.EMDOS              F     # Default value
TRC.EMPDOS              F     # Default value
TRC.EMPDOSK              F     # Default value
TRC.SpecOverK              F     # Default value
CBS.SubSystem              F     # Default value
CBS.PrintWaveFunction              F     # Default value
EM.OrderN              F     # Default value
EM.Timings              F     # Default value
EM.OutputInfo              T     # Default value
EM.WriteNk              F     # Default value
EM.TimeReversal              T     # Default value
EM.AddRhoGate              F     # Default value
EM.DebugRhoGate              F     # Default value
EM.NetRhoGateCharge          0.000000000         # Default value
EM.RhoGateLxMin        -0.1000000000E+11 Bohr     # Default value
EM.RhoGateLxMax        -0.1000000000E+11 Bohr     # Default value
EM.RhoGateLyMin        -0.1000000000E+11 Bohr     # Default value
EM.RhoGateLyMax        -0.1000000000E+11 Bohr     # Default value
EM.RhoGateLzMin        -0.1000000000E+11 Bohr     # Default value
EM.RhoGateLzMax        -0.1000000000E+11 Bohr     # Default value
EM.SetRhoBoundaryFromLeads              T     # Default value
EM.SetRhoBoundaryOverlapFromLeads              T     # Default value
EM.SetHBoundaryFromLeads              T     # Default value
EM.SetHLRZero              T     # Default value
EM.SetHLRZeroRatioLeft          1.000000000         # Default value
EM.SetHLRZeroRatioRight          1.000000000         # Default value
EM.NSetHBoundaryFromLeadsL              1     # Default value
EM.NSetHBoundaryFromLeadsR              1     # Default value
AtomicCoordinatesFormat     Ang                                                                                                                                 
AtomCoorFormatOut     Ang                        # Default value
LatticeConstant          1.889726878           Bohr
# Above item originally: LatticeConstant          1.000000000     Ang       
LDAUForces              T     # Default value
LDAU.units          1.000000000     Ry     # Default value
Print_ldau              T     # Default value
LDAU_METHOD              1     # Default value
SystemLabel     mol                                                                                                                                 
xc.functional     GGA                                                                                                                                 
xc.authors     PBE                                                                                                                                 
Harris_functional              F     # Default value
DeltaWorkfunction          0.000000000     Ry     # Default value
WriteVNA              F     # Default value
PoissonMultigrid              F     # Default value
LatticeConstant          1.889726878           Bohr
# Above item originally: LatticeConstant          1.000000000     Ang       

%block LatticeVectors                                                          
         20.00000        0.00000000       0.00000000                           
         0.00000        20.0000000        0.00000000                           
         0.00000000      0.00000000      20.0000                               
%endblock LatticeVectors                                                       
 

%block LatticeVectors                                                          
         20.00000        0.00000000       0.00000000                           
         0.00000        20.0000000        0.00000000                           
         0.00000000      0.00000000      20.0000                               
%endblock LatticeVectors                                                       
 
DirectPhi              F     # Default value
HartreeLeadsLeft          0.000000000     Bohr     # Default value
HartreeLeadsRight          0.000000000     Bohr     # Default value
HartreeLeadsBottom          0.000000000     Ry     # Default value

%block ExternalElectricField                                                   
   0.000 0.000 1.0000 V/Ang                                                    
%endblock ExternalElectricField                                                
 
SlabDipoleCorrection              F     # Default value
ParallelOverK              F     # Default value
MixedParallel              F     # Default value
LatticeConstant          1.889726878           Bohr
# Above item originally: LatticeConstant          1.000000000     Ang       

%block LatticeVectors                                                          
         20.00000        0.00000000       0.00000000                           
         0.00000        20.0000000        0.00000000                           
         0.00000000      0.00000000      20.0000                               
%endblock LatticeVectors                                                       
 

%block LatticeVectors                                                          
         20.00000        0.00000000       0.00000000                           
         0.00000        20.0000000        0.00000000                           
         0.00000000      0.00000000      20.0000                               
%endblock LatticeVectors                                                       
 
DivideAndConquer              F     # Default value
SingleExcitation              F     # Default value
OccupationFunction     FD     # Default value
OccupationFunction     FD     # Default value
SystemLabel     mol                                                                                                                                 
LatticeConstant          1.889726878           Bohr
# Above item originally: LatticeConstant          1.000000000     Ang       

%block LatticeVectors                                                          
         20.00000        0.00000000       0.00000000                           
         0.00000        20.0000000        0.00000000                           
         0.00000000      0.00000000      20.0000                               
%endblock LatticeVectors                                                       
 

%block LatticeVectors                                                          
         20.00000        0.00000000       0.00000000                           
         0.00000        20.0000000        0.00000000                           
         0.00000000      0.00000000      20.0000                               
%endblock LatticeVectors                                                       
 
LatticeConstant          1.889726878           Bohr
# Above item originally: LatticeConstant          1.000000000     Ang       

%block LatticeVectors                                                          
         20.00000        0.00000000       0.00000000                           
         0.00000        20.0000000        0.00000000                           
         0.00000000      0.00000000      20.0000                               
%endblock LatticeVectors                                                       
 

%block LatticeVectors                                                          
         20.00000        0.00000000       0.00000000                           
         0.00000        20.0000000        0.00000000                           
         0.00000000      0.00000000      20.0000                               
%endblock LatticeVectors                                                       
 
LatticeConstant          1.889726878           Bohr
# Above item originally: LatticeConstant          1.000000000     Ang       

%block LatticeVectors                                                          
         20.00000        0.00000000       0.00000000                           
         0.00000        20.0000000        0.00000000                           
         0.00000000      0.00000000      20.0000                               
%endblock LatticeVectors                                                       
 

%block LatticeVectors                                                          
         20.00000        0.00000000       0.00000000                           
         0.00000        20.0000000        0.00000000                           
         0.00000000      0.00000000      20.0000                               
%endblock LatticeVectors                                                       
 
LatticeConstant          1.889726878           Bohr
# Above item originally: LatticeConstant          1.000000000     Ang       

%block LatticeVectors                                                          
         20.00000        0.00000000       0.00000000                           
         0.00000        20.0000000        0.00000000                           
         0.00000000      0.00000000      20.0000                               
%endblock LatticeVectors                                                       
 

%block LatticeVectors                                                          
         20.00000        0.00000000       0.00000000                           
         0.00000        20.0000000        0.00000000                           
         0.00000000      0.00000000      20.0000                               
%endblock LatticeVectors                                                       
 
LatticeConstant          1.889726878           Bohr
# Above item originally: LatticeConstant          1.000000000     Ang       

%block LatticeVectors                                                          
         20.00000        0.00000000       0.00000000                           
         0.00000        20.0000000        0.00000000                           
         0.00000000      0.00000000      20.0000                               
%endblock LatticeVectors                                                       
 

%block LatticeVectors                                                          
         20.00000        0.00000000       0.00000000                           
         0.00000        20.0000000        0.00000000                           
         0.00000000      0.00000000      20.0000                               
%endblock LatticeVectors                                                       
 
LatticeConstant          1.889726878           Bohr
# Above item originally: LatticeConstant          1.000000000     Ang       

%block LatticeVectors                                                          
         20.00000        0.00000000       0.00000000                           
         0.00000        20.0000000        0.00000000                           
         0.00000000      0.00000000      20.0000                               
%endblock LatticeVectors                                                       
 

%block LatticeVectors                                                          
         20.00000        0.00000000       0.00000000                           
         0.00000        20.0000000        0.00000000                           
         0.00000000      0.00000000      20.0000                               
%endblock LatticeVectors                                                       
 
LatticeConstant          1.889726878           Bohr
# Above item originally: LatticeConstant          1.000000000     Ang       

%block LatticeVectors                                                          
         20.00000        0.00000000       0.00000000                           
         0.00000        20.0000000        0.00000000                           
         0.00000000      0.00000000      20.0000                               
%endblock LatticeVectors                                                       
 

%block LatticeVectors                                                          
         20.00000        0.00000000       0.00000000                           
         0.00000        20.0000000        0.00000000                           
         0.00000000      0.00000000      20.0000                               
%endblock LatticeVectors                                                       
 
LatticeConstant          1.889726878           Bohr
# Above item originally: LatticeConstant          1.000000000     Ang       

%block LatticeVectors                                                          
         20.00000        0.00000000       0.00000000                           
         0.00000        20.0000000        0.00000000                           
         0.00000000      0.00000000      20.0000                               
%endblock LatticeVectors                                                       
 

%block LatticeVectors                                                          
         20.00000        0.00000000       0.00000000                           
         0.00000        20.0000000        0.00000000                           
         0.00000000      0.00000000      20.0000                               
%endblock LatticeVectors                                                       
 
LatticeConstant          1.889726878           Bohr
# Above item originally: LatticeConstant          1.000000000     Ang       

%block LatticeVectors                                                          
         20.00000        0.00000000       0.00000000                           
         0.00000        20.0000000        0.00000000                           
         0.00000000      0.00000000      20.0000                               
%endblock LatticeVectors                                                       
 

%block LatticeVectors                                                          
         20.00000        0.00000000       0.00000000                           
         0.00000        20.0000000        0.00000000                           
         0.00000000      0.00000000      20.0000                               
%endblock LatticeVectors                                                       
 
LatticeConstant          1.889726878           Bohr
# Above item originally: LatticeConstant          1.000000000     Ang       

%block LatticeVectors                                                          
         20.00000        0.00000000       0.00000000                           