 # Version information for this restart file 
 # current date 2023-02-21 21:35:38.694
 # current working dir /work4/scd/scarf1157/work/testing/cp2k-smeagol/bdt/cp2k/hollow-site/transport-cp2k/5-4/geometry-ordered/3x3-4/sz/bulk_layers-4/geo_opt/Au-S-2.45_dft
 # Program compiled at                              Thu 26 Jan 13:39:53 GMT 2023
 # Program compiled on                                     cn1108.scarf.rl.ac.uk
 # Program compiled for                                                    local
 # Source code revision number                                       git:1ef701d
 &GLOBAL
   EXTENDED_FFT_LENGTHS  T
   PRINT_LEVEL  MEDIUM
   PROJECT_NAME dft_wfn
   RUN_TYPE  GEO_OPT
 &END GLOBAL
 &MOTION
   &GEO_OPT
     OPTIMIZER  BFGS
     MAX_ITER  1000
     STEP_START_VAL  17
   &END GEO_OPT
   &CONSTRAINT
     &FIXED_ATOMS
       LIST  1..40 76..116
     &END FIXED_ATOMS
   &END CONSTRAINT
   &PRINT
     &TRAJECTORY  ON
       FORMAT  XMOL
     &END TRAJECTORY
   &END PRINT
 &END MOTION
 &FORCE_EVAL
   METHOD  QS
   &DFT
     BASIS_SET_FILE_NAME BASIS_MOLOPT
     POTENTIAL_FILE_NAME GTH_POTENTIALS
     &SCF
       MAX_SCF  100
       EPS_SCF     9.9999999999999995E-08
       SCF_GUESS  ATOMIC
       ADDED_MOS  100
       &SMEAR  T
         METHOD  FERMI_DIRAC
         ELECTRONIC_TEMPERATURE     2.9300000000000000E+02
       &END SMEAR
       &MIXING  T
         METHOD  BROYDEN_MIXING
         ALPHA     2.9999999999999999E-01
         NBUFFER  8
       &END MIXING
       &PRINT
         &RESTART  SILENT
           FILENAME RESTART_0
         &END RESTART
       &END PRINT
     &END SCF
     &MGRID
       CUTOFF     4.0000000000000000E+02
     &END MGRID
     &XC
       DENSITY_CUTOFF     1.0000000000000000E-10
       GRADIENT_CUTOFF     1.0000000000000000E-10
       TAU_CUTOFF     1.0000000000000000E-10
       &XC_FUNCTIONAL  NO_SHORTCUT
         &PADE  T
         &END PADE
       &END XC_FUNCTIONAL
     &END XC
     &POISSON
       PERIODIC  XYZ
     &END POISSON
     &KPOINTS
       SCHEME MONKHORST-PACK 2 2 1
       SYMMETRY  F
       FULL_GRID  T
       VERBOSE  T
       EPS_GEO     1.0000000000000000E-08
       PARALLEL_GROUP_SIZE  0
     &END KPOINTS
     &PRINT
       &E_DENSITY_CUBE  ON
         STRIDE  2 2 2
       &END E_DENSITY_CUBE
       &V_HARTREE_CUBE  SILENT
         STRIDE  2 2 2
       &END V_HARTREE_CUBE
       &HIRSHFELD  SILENT
         SHAPE_FUNCTION  DENSITY
       &END HIRSHFELD
     &END PRINT
   &END DFT
   &SUBSYS
     &CELL
       A     8.2919999999999998E+00    0.0000000000000000E+00    0.0000000000000000E+00
       B     0.0000000000000000E+00    8.2919999999999998E+00    0.0000000000000000E+00
       C     0.0000000000000000E+00    0.0000000000000000E+00    3.3834000000000003E+01
       PERIODIC  XYZ
       MULTIPLE_UNIT_CELL  1 1 1
     &END CELL
     &COORD
Au    0.0000000000000000E+00    0.0000000000000000E+00    0.0000000000000000E+00
Au    0.0000000000000000E+00    4.1459999999999999E+00    0.0000000000000000E+00
Au    2.0730000000000000E+00    2.0730000000000000E+00    0.0000000000000000E+00
Au    2.0730000000000000E+00    6.2190000000000012E+00    0.0000000000000000E+00
Au    4.1459999999999999E+00    0.0000000000000000E+00    0.0000000000000000E+00
Au    4.1459999999999999E+00    4.1459999999999999E+00    0.0000000000000000E+00
Au    6.2190000000000012E+00    2.0730000000000000E+00    0.0000000000000000E+00
Au    6.2190000000000012E+00    6.2190000000000012E+00    0.0000000000000000E+00
Au    0.0000000000000000E+00    2.0730000000000000E+00    2.0730000000000000E+00
Au    0.0000000000000000E+00    6.2190000000000012E+00    2.0730000000000000E+00
Au    2.0730000000000000E+00    0.0000000000000000E+00    2.0730000000000000E+00
Au    2.0730000000000000E+00    4.1459999999999999E+00    2.0730000000000000E+00
Au    4.1459999999999999E+00    2.0730000000000000E+00    2.0730000000000000E+00
Au    4.1459999999999999E+00    6.2190000000000012E+00    2.0730000000000000E+00
Au    6.2190000000000012E+00    0.0000000000000000E+00    2.0730000000000000E+00
Au    6.2190000000000012E+00    4.1459999999999999E+00    2.0730000000000000E+00
Au    0.0000000000000000E+00    0.0000000000000000E+00    4.1459999999999999E+00
Au    0.0000000000000000E+00    4.1459999999999999E+00    4.1459999999999999E+00
Au    2.0730000000000000E+00    2.0730000000000000E+00    4.1459999999999999E+00
Au    2.0730000000000000E+00    6.2190000000000012E+00    4.1459999999999999E+00
Au    4.1459999999999999E+00    0.0000000000000000E+00    4.1459999999999999E+00
Au    4.1459999999999999E+00    4.1459999999999999E+00    4.1459999999999999E+00
Au    6.2190000000000012E+00    2.0730000000000000E+00    4.1459999999999999E+00
Au    6.2190000000000012E+00    6.2190000000000012E+00    4.1459999999999999E+00
Au    0.0000000000000000E+00    2.0730000000000000E+00    6.2190000000000012E+00
Au    0.0000000000000000E+00    6.2190000000000012E+00    6.2190000000000012E+00
Au    2.0730000000000000E+00    0.0000000000000000E+00    6.2190000000000012E+00
Au    2.0730000000000000E+00    4.1459999999999999E+00    6.2190000000000012E+00
Au    4.1459999999999999E+00    2.0730000000000000E+00    6.2190000000000012E+00
Au    4.1459999999999999E+00    6.2190000000000012E+00    6.2190000000000012E+00
Au    6.2190000000000012E+00    0.0000000000000000E+00    6.2190000000000012E+00
Au    6.2190000000000012E+00    4.1459999999999999E+00    6.2190000000000012E+00
Au    0.0000000000000000E+00    0.0000000000000000E+00    8.2919999999999998E+00
Au    0.0000000000000000E+00    4.1459999999999999E+00    8.2919999999999998E+00
Au    2.0730000000000000E+00    2.0730000000000000E+00    8.2919999999999998E+00
Au    2.0730000000000000E+00    6.2190000000000012E+00    8.2919999999999998E+00
Au    4.1459999999999999E+00    0.0000000000000000E+00    8.2919999999999998E+00
Au    4.1459999999999999E+00    4.1459999999999999E+00    8.2919999999999998E+00
Au    6.2190000000000012E+00    2.0730000000000000E+00    8.2919999999999998E+00
Au    6.2190000000000012E+00    6.2190000000000012E+00    8.2919999999999998E+00
Au   -5.2896033840870750E-04    2.0741333767693697E+00    1.0336968374301760E+01
Au    3.0663719178320229E-04    6.2178617319442830E+00    1.0331242337454441E+01
Au    2.0836927957110616E+00    2.3314999768246317E-02    1.0390193008727229E+01
Au    2.0856245692289717E+00    4.1225171773549611E+00    1.0393146112334829E+01
Au    4.1460219894432351E+00    2.0732892267540661E+00    1.0331238895525621E+01
Au    4.1459796427444386E+00    6.2199440815062896E+00    1.0308504211325207E+01
Au    6.2088805671978351E+00    2.2493231399293268E-02    1.0389456632294987E+01
Au    6.2069186976082182E+00    4.1233121252446860E+00    1.0392429169034857E+01
Au   -9.4352974428358368E-04   -6.9255138447243750E-02    1.2474715488153933E+01
Au   -9.7484962958314470E-04    4.2158315780920361E+00    1.2474961509328866E+01
Au    1.8521452528388462E+00    2.0708902879408697E+00    1.2485649143654642E+01
Au    1.9910915135706755E+00    6.2219240952669113E+00    1.2460952261868036E+01
Au    4.1476630152883880E+00   -2.2438432527348470E-01    1.2435547067189146E+01
Au    4.1476464588528081E+00    4.3822321314985357E+00    1.2439961163229711E+01
Au    6.4363058056146478E+00    2.0708521914875351E+00    1.2485500703202668E+01
Au    6.3014788489453846E+00    6.2219361035691696E+00    1.2463799226649366E+01
S    4.1418275131519984E+00    2.0844560061035877E+00    1.3725942598336951E+01
C    4.1425459237807800E+00    2.0819347454256194E+00    1.5517197145666035E+01
H    1.9827805036878225E+00    2.0803190911272100E+00    1.5640543471468995E+01
H    6.3026756091418896E+00    2.0807468589850502E+00    1.5638775685033474E+01
C    2.9155489672653281E+00    2.0799962263667910E+00    1.6195115499100798E+01
C    5.3702303577377659E+00    2.0802804034859119E+00    1.6193886819026947E+01
C    2.9159949202592772E+00    2.0763888832154511E+00    1.7591155160528722E+01
C    5.3711769960397113E+00    2.0766025215738191E+00    1.7589937592734177E+01
H    1.9832436804746021E+00    2.0740824009760686E+00    1.8145345415396644E+01
H    6.3041261796033901E+00    2.0744436430142281E+00    1.8143614420424196E+01
C    4.1439925134821003E+00    2.0748500680582747E+00    1.8267860864055944E+01
S    4.1450764277842786E+00    2.0720669406318555E+00    2.0058928524255212E+01
Au   -2.1098785573474010E-02   -7.3612045189006159E-02    2.1353462083825217E+01
Au   -2.1720887377033881E-02    4.2194042382289840E+00    2.1353177773351518E+01
Au    1.8582742540281831E+00    2.0733791258549905E+00    2.1353819146324014E+01
Au    1.9817676144252430E+00    6.2183060683833071E+00    2.1346009616267974E+01
Au    4.1056043190546934E+00   -1.8500808535219110E-01    2.1390672361863352E+01
Au    4.1061798987297351E+00    4.3300250374760809E+00    2.1390915357946067E+01
Au    6.4082028719126862E+00    2.0728161254543411E+00    2.1363772490026612E+01
Au    6.2190000000000012E+00    6.2190000000000012E+00    2.1396000000000001E+01
Au    0.0000000000000000E+00    2.0730000000000000E+00    2.3469000000000001E+01
Au    0.0000000000000000E+00    6.2190000000000012E+00    2.3469000000000001E+01
Au    2.0730000000000000E+00    0.0000000000000000E+00    2.3469000000000001E+01
Au    2.0730000000000000E+00    4.1459999999999999E+00    2.3469000000000001E+01
Au    4.1459999999999999E+00    2.0730000000000000E+00    2.3469000000000001E+01
Au    4.1459999999999999E+00    6.2190000000000012E+00    2.3469000000000001E+01
Au    6.2190000000000012E+00    0.0000000000000000E+00    2.3469000000000001E+01
Au    6.2190000000000012E+00    4.1459999999999999E+00    2.3469000000000001E+01
Au    0.0000000000000000E+00    0.0000000000000000E+00    2.5542000000000005E+01
Au    0.0000000000000000E+00    4.1459999999999999E+00    2.5542000000000005E+01
Au    2.0730000000000000E+00    2.0730000000000000E+00    2.5542000000000005E+01
Au    2.0730000000000000E+00    6.2190000000000012E+00    2.5542000000000005E+01
Au    4.1459999999999999E+00    0.0000000000000000E+00    2.5542000000000005E+01
Au    4.1459999999999999E+00    4.1459999999999999E+00    2.5542000000000005E+01
Au    6.2190000000000012E+00    2.0730000000000000E+00    2.5542000000000005E+01
Au    6.2190000000000012E+00    6.2190000000000012E+00    2.5542000000000005E+01
Au    0.0000000000000000E+00    2.0730000000000000E+00    2.7614999999999998E+01
Au    0.0000000000000000E+00    6.2190000000000012E+00    2.7614999999999998E+01
Au    2.0730000000000000E+00    0.0000000000000000E+00    2.7614999999999998E+01
Au    2.0730000000000000E+00    4.1459999999999999E+00    2.7614999999999998E+01
Au    4.1459999999999999E+00    2.0730000000000000E+00    2.7614999999999998E+01
Au    4.1459999999999999E+00    6.2190000000000012E+00    2.7614999999999998E+01
Au    6.2190000000000012E+00    0.0000000000000000E+00    2.7614999999999998E+01
Au    6.2190000000000012E+00    4.1459999999999999E+00    2.7614999999999998E+01
Au    0.0000000000000000E+00    0.0000000000000000E+00    2.9688000000000002E+01
Au    0.0000000000000000E+00    4.1459999999999999E+00    2.9688000000000002E+01
Au    2.0730000000000000E+00    2.0730000000000000E+00    2.9688000000000002E+01
Au    2.0730000000000000E+00    6.2190000000000012E+00    2.9688000000000002E+01
Au    4.1459999999999999E+00    0.0000000000000000E+00    2.9688000000000002E+01
Au    4.1459999999999999E+00    4.1459999999999999E+00    2.9688000000000002E+01
Au    6.2190000000000012E+00    2.0730000000000000E+00    2.9688000000000002E+01
Au    6.2190000000000012E+00    6.2190000000000012E+00    2.9688000000000002E+01
Au    0.0000000000000000E+00    2.0730000000000000E+00    3.1760999999999999E+01
Au    0.0000000000000000E+00    6.2190000000000012E+00    3.1760999999999999E+01
Au    2.0730000000000000E+00    0.0000000000000000E+00    3.1760999999999999E+01
Au    2.0730000000000000E+00    4.1459999999999999E+00    3.1760999999999999E+01
Au    4.1459999999999999E+00    2.0730000000000000E+00    3.1760999999999999E+01
Au    4.1459999999999999E+00    6.2190000000000012E+00    3.1760999999999999E+01
Au    6.2190000000000012E+00    0.0000000000000000E+00    3.1760999999999999E+01
Au    6.2190000000000012E+00    4.1459999999999999E+00    3.1760999999999999E+01
     &END COORD
     &KIND Au
       BASIS_SET SZV-MOLOPT-SR-GTH
       POTENTIAL GTH-PADE-q11
       &POTENTIAL
 1 0 10
  0.5900000000000000E+00 1  0.1160442790000000E+02
 3
  0.5211797500000001E+00 2  0.2538613590000000E+01 -0.1046136640000000E+01
  0.2701113200000000E+01
  0.6306130599999999E+00 2  0.3948527000000000E+00 -0.8695921300000000E+00
  0.2057830560000000E+01
  0.4407064300000000E+00 2 -0.4719069660000000E+01  0.7277708100000000E+00
 -0.1650429070000000E+01
         # Potential name:  GTH-PADE-Q11  for symbol:  AU
         # Potential read from the potential filename: GTH_POTENTIALS
       &END POTENTIAL
     &END KIND
     &KIND C
       BASIS_SET SZV-MOLOPT-SR-GTH
       ELEMENT C
       POTENTIAL GTH-PADE-q4
       &POTENTIAL
 2 2
  0.3488304500000000E+00 2 -0.8513771100000000E+01  0.1228432030000000E+01
 2
  0.3045532100000000E+00 1  0.9522841789999999E+01
  0.2326773000000000E+00 0
         # Potential name:  GTH-PADE-Q4  for symbol:  C
         # Potential read from the potential filename: GTH_POTENTIALS
       &END POTENTIAL
     &END KIND
     &KIND S
       BASIS_SET SZV-MOLOPT-SR-GTH
       ELEMENT S
       POTENTIAL GTH-PADE-q6
       &POTENTIAL
 2 4
  0.4200000000000000E+00 1 -0.6554491840000000E+01
 2
  0.3617566500000000E+00 2  0.7905302500000000E+01 -0.1731881300000000E+01
  0.4471698300000000E+01
  0.4052850200000000E+00 1  0.3866579000000000E+01
         # Potential name:  GTH-PADE-Q6  for symbol:  S
         # Potential read from the potential filename: GTH_POTENTIALS
       &END POTENTIAL
     &END KIND
     &KIND H
       BASIS_SET SZV-MOLOPT-SR-GTH
       ELEMENT H
       POTENTIAL GTH-PADE-q1
       &POTENTIAL
 1
  0.2000000000000000E+00 2 -0.4180236800000000E+01  0.7250748200000000E+00
 0
         # Potential name:  GTH-PADE-Q1  for symbol:  H
         # Potential read from the potential filename: GTH_POTENTIALS
       &END POTENTIAL
     &END KIND
     &TOPOLOGY
       COORD_FILE_NAME em.xyz
       COORD_FILE_FORMAT  XYZ
       NUMBER_OF_ATOMS  116
       MULTIPLE_UNIT_CELL  1 1 1
     &END TOPOLOGY
   &END SUBSYS
 &END FORCE_EVAL
