&GLOBAL
   PROJECT              bulk
   RUN_TYPE             energy
   PRINT_LEVEL          medium
   EXTENDED_FFT_LENGTHS .true.
&END GLOBAL

&FORCE_EVAL
   METHOD Quickstep

   &DFT
      BASIS_SET_FILE_NAME BASIS_MOLOPT
      POTENTIAL_FILE_NAME GTH_POTENTIALS
      BASIS_SET_FILE_NAME BASIS_CUSTOM

      &SMEAGOL
         PROJECT_NAME   bulk
         BulkTransport  T
         BulkLead       LR
      &END

      &MGRID
         CUTOFF 500
         NGRIDS 5
      &END MGRID

      &SCF
         MAX_SCF   100
         EPS_SCF   1e-8
         SCF_GUESS atomic
         ADDED_MOS 100

         &SMEAR
            ELECTRONIC_TEMPERATURE [K] 300
            METHOD fermi_dirac
         &END SMEAR

         &MIXING
            ALPHA   0.3
            METHOD  broyden_mixing
            NBUFFER 8
         &END MIXING

         &PRINT
            &RESTART
               FILENAME RESTART_0
            &END RESTART
         &END PRINT
      &END SCF

    &PRINT
        &V_HARTREE_CUBE
        STRIDE  2 2 2
        &END  V_HARTREE_CUBE
      &E_DENSITY_CUBE  ON
        STRIDE 2 2 2
      &END E_DENSITY_CUBE
      &HIRSHFELD
    SHAPE_FUNCTION  DENSITY
    &END HIRSHFELD
    &END PRINT

      &POISSON
         PERIODIC xyz
      &END POISSON

        &XC
       DENSITY_CUTOFF     1.0000000000000000E-10
       GRADIENT_CUTOFF     1.0000000000000000E-10
       TAU_CUTOFF     1.0000000000000000E-10
       &XC_FUNCTIONAL  NO_SHORTCUT
         &PBE  T
         &END PBE
       &END XC_FUNCTIONAL
       &VDW_POTENTIAL
         POTENTIAL_TYPE  PAIR_POTENTIAL
         &PAIR_POTENTIAL
           R_CUTOFF     8.0000000000000000E+00
           TYPE  DFTD3
           PARAMETER_FILE_NAME dftd3.dat
           REFERENCE_FUNCTIONAL PBE
           EPS_CN     1.0000000000000000E-02
           CALCULATE_C9_TERM  T
           REFERENCE_C9_TERM  T
           LONG_RANGE_CORRECTION  T
         &END PAIR_POTENTIAL
       &END VDW_POTENTIAL
     &END XC

      &KPOINTS
         SCHEME  MONKHORST-PACK  1 1 20
         SYMMETRY OFF
         EPS_GEO 1.e-8
         FULL_GRID ON
         VERBOSE T
         # -1 -- smallest possible number of processes per group; 0 -- all processes, > 0 -- this number of processes
         PARALLEL_GROUP_SIZE  -1
      &END KPOINTS
   &END DFT

   &SUBSYS

      &CELL
      ABC     1.7811878396732908E+01    1.5425539180689931E+01    7.2717
      PERIODIC xyz
      &END CELL

      &TOPOLOGY
# &CENTER_COORDINATES
#         &END CENTER_COORDINATES
        COORD_FILE_NAME bulk.xyz
        COORD_FILE_FORMAT  XYZ
      &END TOPOLOGY

        &KIND Au_lead   
         #BASIS_SET TZVP-MOLOPT-SR-GTH-q11
         #BASIS_SET DZVP-MOLOPT-SR-GTH-q11
         #BASIS_SET SZV-MOLOPT-SR-GTH-q11
         #POTENTIAL GTH-PBE-q11
         BASIS_SET SZV-CUSTOM-q1
         POTENTIAL GTH-PADE-q1

      &END KIND
 
   &END SUBSYS
&END FORCE_EVAL

