#
SystemName   leads         # optional change
SystemLabel  cntleads
NumberOfSpecies    1
%block ChemicalSpeciesLabel
 1 6 C
%endblock ChemicalSpeciesLabel
# UNIT CELL
LatticeConstant          1.0 Ang
%block LatticeVectors
   20.0000000000  0.0000000000  0.0000000000
   0.0000000000  20.0000000000  0.0000000000
   0.0000000000  0.0000000000  4.9540000000
%endblock LatticeVectors
#cellOrigin           1.666    0.000   14.490
# Chemical species
# ATOMIC POSITIONS
# Atomic coordinates
NumberOfAtoms    24
AtomicCoordinatesFormat    Ang
%block AtomicCoordinatesAndAtomicSpecies
   7.1913782761  8.0377560289  0.0000000000 1
   8.2330243224  7.1006842522  0.0000000000 1
   7.7389315538  10.6141122558  0.0000000000 1
   9.0716446604  11.0469225786  0.0000000000 1
   10.7371163229  7.9143311368  0.0000000000 1
   11.0280441238  9.2852034920  0.0000000000 1
   6.9719558762  8.7147965080  1.2385000000 1
   7.2628836771  10.0856688632  1.2385000000 1
   8.9283553396  6.9530774214  1.2385000000 1
   10.2610684462  7.3858877442  1.2385000000 1
   9.7669756776  10.8993157478  1.2385000000 1
   10.8086217239  9.9622439711  1.2385000000 1
   7.1913782761  8.0377560289  2.4770000000 1
   8.2330243224  7.1006842522  2.4770000000 1
   7.7389315538  10.6141122558  2.4770000000 1
   9.0716446604  11.0469225786  2.4770000000 1
   10.7371163229  7.9143311368  2.4770000000 1
   11.0280441238  9.2852034920  2.4770000000 1
   6.9719558762  8.7147965080  3.7155000000 1
   7.2628836771  10.0856688632  3.7155000000 1
   8.9283553396  6.9530774214  3.7155000000 1
   10.2610684462  7.3858877442  3.7155000000 1
   9.7669756776  10.8993157478  3.7155000000 1
   10.8086217239  9.9622439711  3.7155000000 1
%endblock AtomicCoordinatesAndAtomicSpecies
# Basis set variables
PAO.BasisType    split
PAO.BasisSize    DZP
%block PAO.Basis                 # Define Basis set
C           2                    # Species label, number of l-shells
 n=2   0   2                         # n, l, Nzeta
   4.3      0.0
 n=2   1   2                         # n, l, Nzeta
   4.9      0.0
%endblock PAO.Basis
%block kgrid_Monkhorst_Pack
  1   0   0     0.0
  0   1   0     0.0
  0   0 100     0.0
%endblock kgrid_Monkhorst_Pack
# General variables
NeglNonOverlapInt      False
ElectronicTemperature     300 K  # Default value
MeshCutoff              400. Ry
xc.functional            LDA           # Exchange-correlation functional
xc.authors               CA
SpinPolarized            T
          # Exchange-correlation version
# SCF variables
MaxSCFIterations         1000           # Maximum number of SCF iter
DM.MixingWeight                 0.1         # optional change
DM.Tolerance                 1.0E-6
DM.UseSaveDM             true          # to use continuation files
DM.NumberPulay                    5
SolutionMethod        diagon
# Output variables
WriteMullikenPop                   0
#WriteBands                         F
SaveRho                            T
SaveDeltaRho                       F
SaveHS                             F
SaveElectrostaticPotential         T
SaveTotalPotential                 F
WriteCoorXmol                      T
WriteMDXmol                        F
WriteMDhistory                     F
WriteEigenvalues                   F
ParallelOverK  T
#BandLinesScale   ReciprocalLatticeVectors
#
#%block BandLines
#  1  0.00000   0.000000   0.000000  \Gamma
#100  0.00000   0.000000   0.500000  H
#%endblock BandLines
#----- #smeagol
BulkTransport                     T
BulkLeads                        LR
WriteEDM                          T
