 # Version information for this restart file 
 # current date 2022-10-20 13:51:47.209
 # current working dir /work4/scd/scarf1157/work/testing/cp2k-smeagol/bdt/hollow-site/em-cp2k/geo_opt/dzp-frozen-au-bulk
 # Program compiled at                              Thu  6 Oct 11:48:07 BST 2022
 # Program compiled on                                     cn1065.scarf.rl.ac.uk
 # Program compiled for                                                    local
 # Source code revision number                                       git:8c0411e
 &GLOBAL
   EXTENDED_FFT_LENGTHS  T
   PRINT_LEVEL  MEDIUM
   PROJECT_NAME dft_wfn
   RUN_TYPE  GEO_OPT
 &END GLOBAL
 &MOTION
   &GEO_OPT
     OPTIMIZER  BFGS
     MAX_ITER  1000
     STEP_START_VAL  9
   &END GEO_OPT
   &CONSTRAINT
     &FIXED_ATOMS
       COMPONENTS_TO_FIX  XYZ
       LIST  141..300
     &END FIXED_ATOMS
   &END CONSTRAINT
   &PRINT
     &TRAJECTORY  ON
       FORMAT  XMOL
     &END TRAJECTORY
   &END PRINT
 &END MOTION
 &FORCE_EVAL
   METHOD  QS
   &DFT
     BASIS_SET_FILE_NAME BASIS_MOLOPT
     POTENTIAL_FILE_NAME GTH_POTENTIALS
     &SCF
       MAX_SCF  100
       EPS_SCF     9.9999999999999995E-08
       SCF_GUESS  ATOMIC
       ADDED_MOS  100
       &SMEAR  T
         METHOD  FERMI_DIRAC
         ELECTRONIC_TEMPERATURE     2.9300000000000000E+02
       &END SMEAR
       &MIXING  T
         METHOD  BROYDEN_MIXING
         ALPHA     2.9999999999999999E-01
         NBUFFER  8
       &END MIXING
       &PRINT
         &RESTART  SILENT
           FILENAME RESTART_0
         &END RESTART
       &END PRINT
     &END SCF
     &MGRID
       CUTOFF     4.0000000000000000E+02
     &END MGRID
     &XC
       DENSITY_CUTOFF     1.0000000000000000E-10
       GRADIENT_CUTOFF     1.0000000000000000E-10
       TAU_CUTOFF     1.0000000000000000E-10
       &XC_FUNCTIONAL  NO_SHORTCUT
         &PADE  T
         &END PADE
       &END XC_FUNCTIONAL
     &END XC
     &POISSON
       PERIODIC  XYZ
     &END POISSON
     &PRINT
       &MO_CUBES  ON
         NLUMO  1
         NHOMO  1
       &END MO_CUBES
       &E_DENSITY_CUBE  ON
       &END E_DENSITY_CUBE
       &HIRSHFELD  SILENT
         SHAPE_FUNCTION  DENSITY
       &END HIRSHFELD
     &END PRINT
   &END DFT
   &SUBSYS
     &CELL
       A     1.6685150000000000E+01    0.0000000000000000E+00    0.0000000000000000E+00
       B     0.0000000000000000E+00    1.6685150000000000E+01    0.0000000000000000E+00
       C     0.0000000000000000E+00    0.0000000000000000E+00    2.5602979999999999E+01
       PERIODIC  XYZ
       MULTIPLE_UNIT_CELL  1 1 1
     &END CELL
     &COORD
S    9.3785710283947843E+00    1.1458464443933913E+01    1.6991747098448165E+01
C    9.3791416114436856E+00    1.1461883889146664E+01    1.5227062005703820E+01
C    8.1711644575940561E+00    1.1465648017083158E+01    1.4534758181514652E+01
C    1.0588751863198956E+01    1.1465693775774172E+01    1.4537576004223427E+01
S    9.3845623331102779E+00    1.1481939961687681E+01    1.0697428556640434E+01
C    9.3825236386969078E+00    1.1476754366681833E+01    1.2462185010055471E+01
C    1.0590218387723331E+01    1.1473228088020070E+01    1.3155115359834831E+01
C    8.1732194153056295E+00    1.1473309876701627E+01    1.3152246613914667E+01
H    7.2305714634833986E+00    1.1462894003240249E+01    1.5089722957946936E+01
H    1.1528058190242261E+01    1.1462828168532321E+01    1.5094726929664418E+01
H    1.1530826945775495E+01    1.1476378783787721E+01    1.2600146958027517E+01
H    7.2339852762649439E+00    1.1476406561863765E+01    1.2594956941865426E+01
Au    1.0428181244418488E+00    1.0535872487283910E+00    9.3205407400648372E+00
Au    3.1154003984430951E+00    3.1287248838630886E+00    9.3213789451513893E+00
Au    5.1977928213100091E+00    1.0576062544824469E+00    9.3127541254684481E+00
Au    1.3572992086255207E+01    1.0575593878658534E+00    9.3127875296979994E+00
Au    1.0428153043629207E+00    5.2034870085387785E+00    9.3205438275820551E+00
Au    1.0428282496858987E+00    1.3565852078931625E+01    9.3174574804408330E+00
Au    7.2898056879608912E+00    3.1284517320376266E+00    9.3181783150873425E+00
Au    1.5655351925163036E+01    3.1287344393156844E+00    9.3213696800435812E+00
Au    3.1147331677091943E+00    7.2871750448461770E+00    9.3119894854168930E+00
Au    3.1148435760198225E+00    1.5654927054535751E+01    9.3119897626482526E+00
Au    5.1985966475790191E+00    5.1999874288309229E+00    9.3126432252453917E+00
Au    1.3596180355599332E+01    1.3598974324841100E+01    9.3117294166904951E+00
Au    1.3572177151001140E+01    5.2000240489901506E+00    9.3126672576007206E+00
Au    5.1746131571770846E+00    1.3598981763111420E+01    9.3116956792007812E+00
Au    7.2539924154495594E+00    7.2591803076990251E+00    9.3075518817941827E+00
Au    1.5655955864220765E+01    1.5654910446562802E+01    9.3119881589826576E+00
Au    1.5656059569090779E+01    7.2871835412032482E+00    9.3119903727809703E+00
Au    7.2520682241488545E+00    1.5684989004930562E+01    9.3078103277596558E+00
Au    1.0428284920035167E+00    9.3762715133356558E+00    9.3174256291560411E+00
Au    9.3854190924448453E+00    1.0568589439424074E+00    9.3185541563410048E+00
Au    3.1136938400894203E+00    1.1470954234302699E+01    9.3224148826939821E+00
Au    1.1480967354375290E+01    3.1284722197418500E+00    9.3181413726846376E+00
Au    9.3854133436881995E+00    5.2002647726816615E+00    9.3186082224168558E+00
Au    9.3855027361112402E+00    1.3731156723961963E+01    9.3690600779824660E+00
Au    5.1738651337976203E+00    9.3423575197011210E+00    9.3118011972912758E+00
Au    1.3596942585933084E+01    9.3423619086839178E+00    9.3118278655735391E+00
Au    1.1516883774858506E+01    7.2591722701313115E+00    9.3075771075455584E+00
Au    1.1518808163261022E+01    1.5684993659691877E+01    9.3078333620417784E+00
Au    7.1338063591594780E+00    1.1468657482161564E+01    9.4003592421847664E+00
Au    1.5657072602393415E+01    1.1470961700665921E+01    9.3224778697816113E+00
Au    9.3855068752881508E+00    9.2189660240391067E+00    9.3653947253645384E+00
Au    1.1636891640857613E+01    1.1468652444103292E+01    9.4002675047678768E+00
Au    1.0426535821047493E+00    1.0534432842074384E+00    1.8368567216731254E+01
Au    3.1153967863684366E+00    3.1281762517858618E+00    1.8367744953064388E+01
Au    5.1987023605145817E+00    1.0567991687342253E+00    1.8376439462880331E+01
Au    1.3572171328533376E+01    1.0569304879729629E+00    1.8376385829467342E+01
Au    1.0426562101429107E+00    5.2033407440480808E+00    1.8368523734412094E+01
Au    1.0428170573975448E+00    1.3565803017448355E+01    1.8371639222648422E+01
Au    7.2897908153103366E+00    3.1284588602418086E+00    1.8370924034815733E+01
Au    1.5655319127991257E+01    3.1281817818645465E+00    1.8367720392087058E+01
Au    3.1146346073028375E+00    7.2868536782301820E+00    1.8377023185491723E+01
Au    3.1145277892021337E+00    1.5655178996558561E+01    1.8377043025306627E+01
Au    5.1978324551857460E+00    5.1994052243406497E+00    1.8376309522877641E+01
Au    1.3596271996870424E+01    1.3599213549568880E+01    1.8377220774021310E+01
Au    1.3573045499396040E+01    5.1992676822830237E+00    1.8376253036188434E+01
Au    5.1731534220763269E+00    1.3600425507785889E+01    1.8377132686904826E+01
Au    7.2522320406498242E+00    7.2572667335879784E+00    1.8381213899393781E+01
Au    1.5655806923679311E+01    1.5654597516870576E+01    1.8377096276037417E+01
Au    1.5655697061725974E+01    7.2874479765512170E+00    1.8377073968151080E+01
Au    7.2543423762895491E+00    1.5682549516650786E+01    1.8381456557038305E+01
Au    1.0428153930099664E+00    9.3762138313200065E+00    1.8371625265804731E+01
Au    9.3854885118689477E+00    1.0566366559049849E+00    1.8370473801916543E+01
Au    3.1136366997119853E+00    1.1471154727042327E+01    1.8366732989919587E+01
Au    1.1480963567919568E+01    3.1284680794610180E+00    1.8370958108478170E+01
Au    9.3854923941795558E+00    5.2000681255433969E+00    1.8370553781137687E+01
Au    9.3868853777331562E+00    1.3722758186741469E+01    1.8323438275786835E+01
Au    5.1739556416954127E+00    9.3425267617267362E+00    1.8377272771688308E+01
Au    1.3595475555137853E+01    9.3437364255589053E+00    1.8377366764857179E+01
Au    1.1519201404367177E+01    7.2567435726010645E+00    1.8381098558121231E+01
Au    1.1517081367375456E+01    1.5683053048395752E+01    1.8381332126724619E+01
Au    7.1314116852953928E+00    1.1473716732328407E+01    1.8287389427331618E+01
Au    1.5656994415880817E+01    1.1471150073332494E+01    1.8366602655566457E+01
Au    9.3868964730780249E+00    9.2105553695311002E+00    1.8319509953144255E+01
Au    1.1634543011613005E+01    1.1473710339605233E+01    1.8289611027077182E+01
Au    1.0428086924042734E+00    3.1284527334101764E+00    7.2616644419524397E+00
Au    3.1236032477464035E+00    1.0472007294926582E+00    7.2576852953958104E+00
Au    1.0428168324156708E+00    7.2962887679128556E+00    7.2633445106527521E+00
Au    1.0428169153050513E+00    1.5645729565491949E+01    7.2634269839962062E+00
Au    5.2091665396913012E+00    3.1285315978628025E+00    7.2637539368419057E+00
Au    1.3561630256877427E+01    3.1285288581755410E+00    7.2637616353195611E+00
Au    3.1236951283314909E+00    5.2098162110365749E+00    7.2577643262525795E+00
Au    3.1216884826284117E+00    1.3550137571523697E+01    7.2585553245258376E+00
Au    7.3035568693359902E+00    1.0515268601047529E+00    7.2583090670962056E+00
Au    1.5647183331199487E+01    1.0472153889524249E+00    7.2576893583740798E+00
Au    1.0428443336673932E+00    1.1471087524877619E+01    7.2649115361494756E+00
Au    9.3853776562467175E+00    3.1284825412223074E+00    7.2637799269596428E+00
Au    3.1215986862486247E+00    9.3919208970745487E+00    7.2584471323066362E+00
Au    1.1467247823867536E+01    1.0515482562385592E+00    7.2583159442133924E+00
Au    5.2116824650242348E+00    7.2985004223024026E+00    7.2475394618620088E+00
Au    1.3559198683333776E+01    1.5643287694860124E+01    7.2474059879685173E+00
Au    1.3559118848730847E+01    7.2985072497543131E+00    7.2475343736125586E+00
Au    5.2116028824726968E+00    1.5643292235013217E+01    7.2474104823768206E+00
Au    7.3036539568264365E+00    5.2056696712732853E+00    7.2585695362538916E+00
Au    1.5649102765041421E+01    1.3550125581843067E+01    7.2585798109069781E+00
Au    1.5647088507926577E+01    5.2098061764760564E+00    7.2577652169876830E+00
Au    7.3194967572958181E+00    1.3533075866337009E+01    7.2957588520948837E+00
Au    5.2260372259408037E+00    1.1471091025858893E+01    7.2836701426766925E+00
Au    1.3544881860268340E+01    1.1471091275361703E+01    7.2835636048953605E+00
Au    9.3854356464164965E+00    7.3031921884275555E+00    7.2723151263429369E+00
Au    9.3854390677094912E+00    1.5639106606315243E+01    7.2723682970790975E+00
Au    7.3187395691033013E+00    9.4085356188966109E+00    7.2940798386498331E+00
Au    1.5649196159559004E+01    9.3919330687257450E+00    7.2584697188090352E+00
Au    1.1467145739324687E+01    5.2056591838782502E+00    7.2585636341728828E+00
Au    1.1451333654561715E+01    1.3533074644584088E+01    7.2957573947152330E+00
Au    9.3854056534257033E+00    1.1471644018446518E+01    7.2676950470847208E+00
Au    1.1452090832239991E+01    9.4085296877365927E+00    7.2940780018230917E+00
Au    1.0428126071378492E+00    3.1284942297884966E+00    2.0427203738911999E+01
Au    3.1236883127344308E+00    1.0471291253956132E+00    2.0431075526393951E+01
Au    5.2091920998566259E+00    3.1283960747748853E+00    2.0425089602897568E+01
Au    1.3561652012236607E+01    3.1283897203944591E+00    2.0425150535384933E+01
Au    1.0427570564787334E+00    7.2963442813449522E+00    2.0425434545822153E+01
Au    1.0427543973143780E+00    1.5645779901239072E+01    2.0425529555192991E+01
Au    7.3036968973512906E+00    1.0511661892246160E+00    2.0430195396344768E+01
Au    1.5647066581556841E+01    1.0470723514614981E+00    2.0431027600621871E+01
Au    3.1235970376326150E+00    5.2096988991890214E+00    2.0431160183921556E+01
Au    3.1215157167896188E+00    1.3550210946706548E+01    2.0430448622228369E+01
Au    5.2117193425827093E+00    7.2988070095519522E+00    2.0441463479862843E+01
Au    1.3559167975416267E+01    1.5643544155413004E+01    2.0441261131193265E+01
Au    1.3559266697891614E+01    7.2988242509522294E+00    2.0441393529902513E+01
Au    5.2118175980381007E+00    1.5643559255598458E+01    2.0441336629902494E+01
Au    7.3035848474252951E+00    5.2054651141943129E+00    2.0430476839060919E+01
Au    1.5649072226501682E+01    1.3550117857092495E+01    2.0430252636367310E+01
Au    1.5647163749992094E+01    5.2097757803297977E+00    2.0431087751415202E+01
Au    7.3189267876764799E+00    1.3533300920533904E+01    2.0394230222860010E+01
Au    1.0428109153389660E+00    1.1470987897418686E+01    2.0423958350197069E+01
Au    9.3853583837409449E+00    3.1284603406100304E+00    2.0425089111282375E+01
Au    3.1216178975600721E+00    9.3918955829367583E+00    2.0430325586267255E+01
Au    1.1467143795347075E+01    1.0512424805061149E+00    2.0430248451163195E+01
Au    9.3854326543523765E+00    7.3029942615862913E+00    2.0416489214882294E+01
Au    9.3854281306814471E+00    1.5638865335555353E+01    2.0416588940057284E+01
Au    5.2259477482491432E+00    1.1471017385198438E+01    2.0405211867142693E+01
Au    1.3544795280693407E+01    1.1471018446909794E+01    2.0405363980847913E+01
Au    1.1467270980908317E+01    5.2053771897360281E+00    2.0430551824462327E+01
Au    1.1452207927413296E+01    1.3533756046518519E+01    2.0395279813465457E+01
Au    7.3197117726997698E+00    9.4092952604330566E+00    2.0392452835495519E+01
Au    1.5648969500310937E+01    9.3919969711693536E+00    2.0430150150176409E+01
Au    9.3850870411273846E+00    1.1470415396795937E+01    2.0421096614649890E+01
Au    1.1451414909086218E+01    9.4088476837554431E+00    2.0393495623041193E+01
Au    1.0428210000000000E+00    1.0428210000000000E+00    1.0428239999999978E+00
Au    1.0428210000000000E+00    3.1284650000000003E+00    3.1284679999999980E+00
Au    3.1284650000000003E+00    1.0428210000000000E+00    3.1284679999999980E+00
Au    3.1284650000000003E+00    3.1284650000000003E+00    1.0428239999999978E+00
Au    1.0428210000000000E+00    1.0428210000000000E+00    5.2141119999999983E+00
Au    5.2141089999999997E+00    1.0428210000000000E+00    1.0428239999999978E+00
Au    1.3556685000000002E+01    1.0428210000000000E+00    1.0428239999999978E+00
Au    1.0428210000000000E+00    5.2141089999999997E+00    1.0428239999999978E+00
Au    1.0428210000000000E+00    1.3556685000000002E+01    1.0428239999999978E+00
Au    5.2141089999999997E+00    3.1284650000000003E+00    3.1284679999999980E+00
Au    1.3556685000000002E+01    3.1284650000000003E+00    3.1284679999999980E+00
Au    1.0428210000000000E+00    7.2997530000000008E+00    3.1284679999999980E+00
Au    1.0428210000000000E+00    1.5642329000000000E+01    3.1284679999999980E+00
Au    7.2997530000000008E+00    1.0428210000000000E+00    3.1284679999999980E+00
Au    1.5642329000000000E+01    1.0428210000000000E+00    3.1284679999999980E+00
Au    3.1284650000000003E+00    5.2141089999999997E+00    3.1284679999999980E+00
Au    3.1284650000000003E+00    1.3556685000000002E+01    3.1284679999999980E+00
Au    3.1284650000000003E+00    3.1284650000000003E+00    5.2141119999999983E+00
Au    7.2997530000000008E+00    3.1284650000000003E+00    1.0428239999999978E+00
Au    1.5642329000000000E+01    3.1284650000000003E+00    1.0428239999999978E+00
Au    3.1284650000000003E+00    7.2997530000000008E+00    1.0428239999999978E+00
Au    3.1284650000000003E+00    1.5642329000000000E+01    1.0428239999999978E+00
Au    1.0428210000000000E+00    5.2141089999999997E+00    5.2141119999999983E+00
Au    1.0428210000000000E+00    1.3556685000000002E+01    5.2141119999999983E+00
Au    5.2141089999999997E+00    1.0428210000000000E+00    5.2141119999999983E+00
Au    1.3556685000000002E+01    1.0428210000000000E+00    5.2141119999999983E+00
Au    5.2141089999999997E+00    5.2141089999999997E+00    1.0428239999999978E+00
Au    1.3556685000000002E+01    1.3556685000000002E+01    1.0428239999999978E+00
Au    1.3556685000000002E+01    5.2141089999999997E+00    1.0428239999999978E+00
Au    5.2141089999999997E+00    1.3556685000000002E+01    1.0428239999999978E+00
Au    5.2141089999999997E+00    7.2997530000000008E+00    3.1284679999999980E+00
Au    1.3556685000000002E+01    1.5642329000000000E+01    3.1284679999999980E+00
Au    1.3556685000000002E+01    7.2997530000000008E+00    3.1284679999999980E+00
Au    5.2141089999999997E+00    1.5642329000000000E+01    3.1284679999999980E+00
Au    7.2997530000000008E+00    5.2141089999999997E+00    3.1284679999999980E+00
Au    1.5642329000000000E+01    1.3556685000000002E+01    3.1284679999999980E+00
Au    1.5642329000000000E+01    5.2141089999999997E+00    3.1284679999999980E+00
Au    7.2997530000000008E+00    1.3556685000000002E+01    3.1284679999999980E+00
Au    3.1284650000000003E+00    7.2997530000000008E+00    5.2141119999999983E+00
Au    3.1284650000000003E+00    1.5642329000000000E+01    5.2141119999999983E+00
Au    7.2997530000000008E+00    3.1284650000000003E+00    5.2141119999999983E+00
Au    1.5642329000000000E+01    3.1284650000000003E+00    5.2141119999999983E+00
Au    7.2997530000000008E+00    7.2997530000000008E+00    1.0428239999999978E+00
Au    1.5642329000000000E+01    1.5642329000000000E+01    1.0428239999999978E+00
Au    1.5642329000000000E+01    7.2997530000000008E+00    1.0428239999999978E+00
Au    7.2997530000000008E+00    1.5642329000000000E+01    1.0428239999999978E+00
Au    1.0428210000000000E+00    9.3853969999999993E+00    1.0428239999999978E+00
Au    9.3853969999999993E+00    1.0428210000000000E+00    1.0428239999999978E+00
Au    1.0428210000000000E+00    1.1471041000000001E+01    3.1284679999999980E+00
Au    9.3853969999999993E+00    3.1284650000000003E+00    3.1284679999999980E+00
Au    3.1284650000000003E+00    9.3853969999999993E+00    3.1284679999999980E+00
Au    1.1471041000000001E+01    1.0428210000000000E+00    3.1284679999999980E+00
Au    3.1284650000000003E+00    1.1471041000000001E+01    1.0428239999999978E+00
Au    1.1471041000000001E+01    3.1284650000000003E+00    1.0428239999999978E+00
Au    1.0428210000000000E+00    9.3853969999999993E+00    5.2141119999999983E+00
Au    9.3853969999999993E+00    5.2141089999999997E+00    1.0428239999999978E+00
Au    9.3853969999999993E+00    1.3556685000000002E+01    1.0428239999999978E+00
Au    9.3853969999999993E+00    1.0428210000000000E+00    5.2141119999999983E+00
Au    5.2141089999999997E+00    9.3853969999999993E+00    1.0428239999999978E+00
Au    1.3556685000000002E+01    9.3853969999999993E+00    1.0428239999999978E+00
Au    9.3853969999999993E+00    7.2997530000000008E+00    3.1284679999999980E+00
Au    9.3853969999999993E+00    1.5642329000000000E+01    3.1284679999999980E+00
Au    5.2141089999999997E+00    1.1471041000000001E+01    3.1284679999999980E+00
Au    1.3556685000000002E+01    1.1471041000000001E+01    3.1284679999999980E+00
Au    1.1471041000000001E+01    5.2141089999999997E+00    3.1284679999999980E+00
Au    1.1471041000000001E+01    1.3556685000000002E+01    3.1284679999999980E+00
Au    7.2997530000000008E+00    9.3853969999999993E+00    3.1284679999999980E+00
Au    1.5642329000000000E+01    9.3853969999999993E+00    3.1284679999999980E+00
Au    3.1284650000000003E+00    1.1471041000000001E+01    5.2141119999999983E+00
Au    1.1471041000000001E+01    7.2997530000000008E+00    1.0428239999999978E+00
Au    1.1471041000000001E+01    1.5642329000000000E+01    1.0428239999999978E+00
Au    1.1471041000000001E+01    3.1284650000000003E+00    5.2141119999999983E+00
Au    7.2997530000000008E+00    1.1471041000000001E+01    1.0428239999999978E+00
Au    1.5642329000000000E+01    1.1471041000000001E+01    1.0428239999999978E+00
Au    5.2141089999999997E+00    5.2141089999999997E+00    5.2141119999999983E+00
Au    1.3556685000000002E+01    1.3556685000000002E+01    5.2141119999999983E+00
Au    1.3556685000000002E+01    5.2141089999999997E+00    5.2141119999999983E+00
Au    5.2141089999999997E+00    1.3556685000000002E+01    5.2141119999999983E+00
Au    7.2997530000000008E+00    7.2997530000000008E+00    5.2141119999999983E+00
Au    1.5642329000000000E+01    1.5642329000000000E+01    5.2141119999999983E+00
Au    1.5642329000000000E+01    7.2997530000000008E+00    5.2141119999999983E+00
Au    7.2997530000000008E+00    1.5642329000000000E+01    5.2141119999999983E+00
Au    5.2141089999999997E+00    9.3853969999999993E+00    5.2141119999999983E+00
Au    1.3556685000000002E+01    9.3853969999999993E+00    5.2141119999999983E+00
Au    9.3853969999999993E+00    5.2141089999999997E+00    5.2141119999999983E+00
Au    9.3853969999999993E+00    1.3556685000000002E+01    5.2141119999999983E+00
Au    7.2997530000000008E+00    1.1471041000000001E+01    5.2141119999999983E+00
Au    1.5642329000000000E+01    1.1471041000000001E+01    5.2141119999999983E+00
Au    1.1471041000000001E+01    7.2997530000000008E+00    5.2141119999999983E+00
Au    1.1471041000000001E+01    1.5642329000000000E+01    5.2141119999999983E+00
Au    9.3853969999999993E+00    9.3853969999999993E+00    1.0428239999999978E+00
Au    9.3853969999999993E+00    1.1471041000000001E+01    3.1284679999999980E+00
Au    1.1471041000000001E+01    9.3853969999999993E+00    3.1284679999999980E+00
Au    1.1471041000000001E+01    1.1471041000000001E+01    1.0428239999999978E+00
Au    9.3853969999999993E+00    9.3853969999999993E+00    5.2141119999999983E+00
Au    1.1471041000000001E+01    1.1471041000000001E+01    5.2141119999999983E+00
Au    1.0428210000000000E+00    1.0428210000000000E+00    2.2474511999999997E+01
Au    1.0428210000000000E+00    3.1284650000000003E+00    2.4560155999999999E+01
Au    3.1284650000000003E+00    1.0428210000000000E+00    2.4560155999999999E+01
Au    3.1284650000000003E+00    3.1284650000000003E+00    2.2474511999999997E+01
Au    1.0428210000000000E+00    5.2141089999999997E+00    2.2474511999999997E+01
Au    1.0428210000000000E+00    1.3556685000000002E+01    2.2474511999999997E+01
Au    5.2141089999999997E+00    1.0428210000000000E+00    2.2474511999999997E+01
Au    1.3556685000000002E+01    1.0428210000000000E+00    2.2474511999999997E+01
Au    1.0428210000000000E+00    7.2997530000000008E+00    2.4560155999999999E+01
Au    1.0428210000000000E+00    1.5642329000000000E+01    2.4560155999999999E+01
Au    5.2141089999999997E+00    3.1284650000000003E+00    2.4560155999999999E+01
Au    1.3556685000000002E+01    3.1284650000000003E+00    2.4560155999999999E+01
Au    3.1284650000000003E+00    5.2141089999999997E+00    2.4560155999999999E+01
Au    3.1284650000000003E+00    1.3556685000000002E+01    2.4560155999999999E+01
Au    7.2997530000000008E+00    1.0428210000000000E+00    2.4560155999999999E+01
Au    1.5642329000000000E+01    1.0428210000000000E+00    2.4560155999999999E+01
Au    3.1284650000000003E+00    7.2997530000000008E+00    2.2474511999999997E+01
Au    3.1284650000000003E+00    1.5642329000000000E+01    2.2474511999999997E+01
Au    7.2997530000000008E+00    3.1284650000000003E+00    2.2474511999999997E+01
Au    1.5642329000000000E+01    3.1284650000000003E+00    2.2474511999999997E+01
Au    1.0428210000000000E+00    9.3853969999999993E+00    2.2474511999999997E+01
Au    9.3853969999999993E+00    1.0428210000000000E+00    2.2474511999999997E+01
Au    1.0428210000000000E+00    1.1471041000000001E+01    2.4560155999999999E+01
Au    9.3853969999999993E+00    3.1284650000000003E+00    2.4560155999999999E+01
Au    3.1284650000000003E+00    9.3853969999999993E+00    2.4560155999999999E+01
Au    1.1471041000000001E+01    1.0428210000000000E+00    2.4560155999999999E+01
Au    3.1284650000000003E+00    1.1471041000000001E+01    2.2474511999999997E+01
Au    1.1471041000000001E+01    3.1284650000000003E+00    2.2474511999999997E+01
Au    5.2141089999999997E+00    5.2141089999999997E+00    2.2474511999999997E+01
Au    1.3556685000000002E+01    1.3556685000000002E+01    2.2474511999999997E+01
Au    1.3556685000000002E+01    5.2141089999999997E+00    2.2474511999999997E+01
Au    5.2141089999999997E+00    1.3556685000000002E+01    2.2474511999999997E+01
Au    5.2141089999999997E+00    7.2997530000000008E+00    2.4560155999999999E+01
Au    1.3556685000000002E+01    1.5642329000000000E+01    2.4560155999999999E+01
Au    1.3556685000000002E+01    7.2997530000000008E+00    2.4560155999999999E+01
Au    5.2141089999999997E+00    1.5642329000000000E+01    2.4560155999999999E+01
Au    7.2997530000000008E+00    5.2141089999999997E+00    2.4560155999999999E+01
Au    1.5642329000000000E+01    1.3556685000000002E+01    2.4560155999999999E+01
Au    1.5642329000000000E+01    5.2141089999999997E+00    2.4560155999999999E+01
Au    7.2997530000000008E+00    1.3556685000000002E+01    2.4560155999999999E+01
Au    7.2997530000000008E+00    7.2997530000000008E+00    2.2474511999999997E+01
Au    1.5642329000000000E+01    1.5642329000000000E+01    2.2474511999999997E+01
Au    1.5642329000000000E+01    7.2997530000000008E+00    2.2474511999999997E+01
Au    7.2997530000000008E+00    1.5642329000000000E+01    2.2474511999999997E+01
Au    5.2141089999999997E+00    9.3853969999999993E+00    2.2474511999999997E+01
Au    1.3556685000000002E+01    9.3853969999999993E+00    2.2474511999999997E+01
Au    9.3853969999999993E+00    5.2141089999999997E+00    2.2474511999999997E+01
Au    9.3853969999999993E+00    1.3556685000000002E+01    2.2474511999999997E+01
Au    5.2141089999999997E+00    1.1471041000000001E+01    2.4560155999999999E+01
Au    1.3556685000000002E+01    1.1471041000000001E+01    2.4560155999999999E+01
Au    9.3853969999999993E+00    7.2997530000000008E+00    2.4560155999999999E+01
Au    9.3853969999999993E+00    1.5642329000000000E+01    2.4560155999999999E+01
Au    7.2997530000000008E+00    9.3853969999999993E+00    2.4560155999999999E+01
Au    1.5642329000000000E+01    9.3853969999999993E+00    2.4560155999999999E+01
Au    1.1471041000000001E+01    5.2141089999999997E+00    2.4560155999999999E+01
Au    1.1471041000000001E+01    1.3556685000000002E+01    2.4560155999999999E+01
Au    7.2997530000000008E+00    1.1471041000000001E+01    2.2474511999999997E+01
Au    1.5642329000000000E+01    1.1471041000000001E+01    2.2474511999999997E+01
Au    1.1471041000000001E+01    7.2997530000000008E+00    2.2474511999999997E+01
Au    1.1471041000000001E+01    1.5642329000000000E+01    2.2474511999999997E+01
Au    9.3853969999999993E+00    9.3853969999999993E+00    2.2474511999999997E+01
Au    9.3853969999999993E+00    1.1471041000000001E+01    2.4560155999999999E+01
Au    1.1471041000000001E+01    9.3853969999999993E+00    2.4560155999999999E+01
Au    1.1471041000000001E+01    1.1471041000000001E+01    2.2474511999999997E+01
     &END COORD
     &KIND Au
       BASIS_SET SZV-MOLOPT-SR-GTH
       POTENTIAL GTH-PADE-q11
       &POTENTIAL
 1 0 10
  0.5900000000000000E+00 1  0.1160442790000000E+02
 3
  0.5211797500000001E+00 2  0.2538613590000000E+01 -0.1046136640000000E+01
  0.2701113200000000E+01
  0.6306130599999999E+00 2  0.3948527000000000E+00 -0.8695921300000000E+00
  0.2057830560000000E+01
  0.4407064300000000E+00 2 -0.4719069660000000E+01  0.7277708100000000E+00
 -0.1650429070000000E+01
         # Potential name:  GTH-PADE-Q11  for symbol:  AU
         # Potential read from the potential filename: GTH_POTENTIALS
       &END POTENTIAL
     &END KIND
     &KIND C
       BASIS_SET DZVP-MOLOPT-SR-GTH
       ELEMENT C
       POTENTIAL GTH-PADE-q4
       &POTENTIAL
 2 2
  0.3488304500000000E+00 2 -0.8513771100000000E+01  0.1228432030000000E+01
 2
  0.3045532100000000E+00 1  0.9522841789999999E+01
  0.2326773000000000E+00 0
         # Potential name:  GTH-PADE-Q4  for symbol:  C
         # Potential read from the potential filename: GTH_POTENTIALS
       &END POTENTIAL
     &END KIND
     &KIND S
       BASIS_SET DZVP-MOLOPT-SR-GTH
       ELEMENT S
       POTENTIAL GTH-PADE-q6
       &POTENTIAL
 2 4
  0.4200000000000000E+00 1 -0.6554491840000000E+01
 2
  0.3617566500000000E+00 2  0.7905302500000000E+01 -0.1731881300000000E+01
  0.4471698300000000E+01
  0.4052850200000000E+00 1  0.3866579000000000E+01
         # Potential name:  GTH-PADE-Q6  for symbol:  S
         # Potential read from the potential filename: GTH_POTENTIALS
       &END POTENTIAL
     &END KIND
     &KIND H
       BASIS_SET DZVP-MOLOPT-SR-GTH
       ELEMENT H
       POTENTIAL GTH-PADE-q1
       &POTENTIAL
 1
  0.2000000000000000E+00 2 -0.4180236800000000E+01  0.7250748200000000E+00
 0
         # Potential name:  GTH-PADE-Q1  for symbol:  H
         # Potential read from the potential filename: GTH_POTENTIALS
       &END POTENTIAL
     &END KIND
     &TOPOLOGY
       COORD_FILE_NAME em.xyz
       COORD_FILE_FORMAT  XYZ
       NUMBER_OF_ATOMS  300
       MULTIPLE_UNIT_CELL  1 1 1
       &CENTER_COORDINATES  T
       &END CENTER_COORDINATES
     &END TOPOLOGY
   &END SUBSYS
   &PRINT
     &FORCES  ON
     &END FORCES
   &END PRINT
 &END FORCE_EVAL
