 # Version information for this restart file 
 # current date 2023-02-22 11:15:40.001
 # current working dir /work4/scd/scarf1157/work/testing/cp2k-smeagol/bdt/cp2k/hollow-site/transport-cp2k/5-4/geometry-ordered/3x3-4/sz/bulk_layers-4/geo_opt/dzvp/Au-S-2.65_dft_cell-opt
 # Program compiled at                              Thu 26 Jan 13:39:53 GMT 2023
 # Program compiled on                                     cn1108.scarf.rl.ac.uk
 # Program compiled for                                                    local
 # Source code revision number                                       git:1ef701d
 &GLOBAL
   EXTENDED_FFT_LENGTHS  T
   PRINT_LEVEL  MEDIUM
   PROJECT_NAME dft_wfn
   RUN_TYPE  CELL_OPT
 &END GLOBAL
 &MOTION
   &CELL_OPT
     OPTIMIZER  BFGS
     MAX_ITER  1000
     STEP_START_VAL  2
     TYPE  DIRECT_CELL_OPT
     KEEP_SYMMETRY  T
   &END CELL_OPT
   &CONSTRAINT
     &FIXED_ATOMS
       LIST  1..40 76..116
     &END FIXED_ATOMS
   &END CONSTRAINT
   &PRINT
     &TRAJECTORY  ON
       FORMAT  XMOL
     &END TRAJECTORY
   &END PRINT
 &END MOTION
 &FORCE_EVAL
   METHOD  QS
   STRESS_TENSOR  ANALYTICAL
   &DFT
     BASIS_SET_FILE_NAME BASIS_MOLOPT
     POTENTIAL_FILE_NAME GTH_POTENTIALS
     &SCF
       MAX_SCF  100
       EPS_SCF     9.9999999999999995E-08
       SCF_GUESS  ATOMIC
       ADDED_MOS  100
       &SMEAR  T
         METHOD  FERMI_DIRAC
         ELECTRONIC_TEMPERATURE     2.9300000000000000E+02
       &END SMEAR
       &MIXING  T
         METHOD  BROYDEN_MIXING
         ALPHA     2.9999999999999999E-01
         NBUFFER  8
       &END MIXING
       &PRINT
         &RESTART  SILENT
           FILENAME RESTART_0
         &END RESTART
       &END PRINT
     &END SCF
     &MGRID
       CUTOFF     4.0000000000000000E+02
     &END MGRID
     &XC
       DENSITY_CUTOFF     1.0000000000000000E-10
       GRADIENT_CUTOFF     1.0000000000000000E-10
       TAU_CUTOFF     1.0000000000000000E-10
       &XC_FUNCTIONAL  NO_SHORTCUT
         &PADE  T
         &END PADE
       &END XC_FUNCTIONAL
     &END XC
     &POISSON
       PERIODIC  XYZ
     &END POISSON
     &KPOINTS
       SCHEME MONKHORST-PACK 2 2 1
       SYMMETRY  F
       FULL_GRID  T
       VERBOSE  T
       EPS_GEO     1.0000000000000000E-08
       PARALLEL_GROUP_SIZE  0
     &END KPOINTS
     &PRINT
       &E_DENSITY_CUBE  ON
         STRIDE  2 2 2
       &END E_DENSITY_CUBE
       &V_HARTREE_CUBE  SILENT
         STRIDE  2 2 2
       &END V_HARTREE_CUBE
       &HIRSHFELD  SILENT
         SHAPE_FUNCTION  DENSITY
       &END HIRSHFELD
     &END PRINT
   &END DFT
   &SUBSYS
     &CELL
       A     8.3003064151633481E+00    0.0000000000000000E+00    0.0000000000000000E+00
       B     1.5736582454266811E-06    8.2954790459437788E+00    0.0000000000000000E+00
       C     2.2072724098437098E-04    4.4913646467795149E-06    3.4520544001907375E+01
       PERIODIC  XYZ
       MULTIPLE_UNIT_CELL  1 1 1
     &END CELL
     &COORD
Au    0.0000000000000000E+00    0.0000000000000000E+00    0.0000000000000000E+00
Au    7.8682912271334055E-07    4.1477395229718894E+00    0.0000000000000000E+00
Au    2.0750769972053984E+00    2.0738697614859447E+00    0.0000000000000000E+00
Au    2.0750777840345211E+00    6.2216092844578359E+00    0.0000000000000000E+00
Au    4.1501532075816741E+00    0.0000000000000000E+00    0.0000000000000000E+00
Au    4.1501539944107968E+00    4.1477395229718894E+00    0.0000000000000000E+00
Au    6.2252302047870733E+00    2.0738697614859447E+00    0.0000000000000000E+00
Au    6.2252309916161961E+00    6.2216092844578359E+00    0.0000000000000000E+00
Au    1.3647022792170049E-05    2.0738700311707703E+00    2.0727924839518597E+00
Au    1.4433851914883390E-05    6.2216095541426615E+00    2.0727924839518597E+00
Au    2.0750898573990679E+00    2.6968482541924266E-07    2.0727924839518597E+00
Au    2.0750906442281902E+00    4.1477397926567150E+00    2.0727924839518597E+00
Au    4.1501668546044659E+00    2.0738700311707703E+00    2.0727924839518597E+00
Au    4.1501676414335886E+00    6.2216095541426615E+00    2.0727924839518597E+00
Au    6.2252430649807433E+00    2.6968482541924266E-07    2.0727924839518597E+00
Au    6.2252438518098661E+00    4.1477397926567150E+00    2.0727924839518597E+00
Au    2.6507216461626759E-05    5.3936965083848532E-07    4.1455849679037193E+00
Au    2.7294045584340098E-05    4.1477400623415406E+00    4.1455849679037193E+00
Au    2.0751035044218598E+00    2.0738703008555959E+00    4.1455849679037193E+00
Au    2.0751042912509825E+00    6.2216098238274871E+00    4.1455849679037193E+00
Au    4.1501797147981359E+00    5.3936965083848532E-07    4.1455849679037193E+00
Au    4.1501805016272586E+00    4.1477400623415406E+00    4.1455849679037193E+00
Au    6.2252567120035351E+00    2.0738703008555959E+00    4.1455849679037193E+00
Au    6.2252574988326579E+00    6.2216098238274871E+00    4.1455849679037193E+00
Au    4.0154239253796810E-05    2.0738705705404215E+00    6.2183774518555790E+00
Au    4.0941068376510149E-05    6.2216100935123126E+00    6.2183774518555790E+00
Au    2.0751163646155293E+00    8.0905447625772814E-07    6.2183774518555790E+00
Au    2.0751171514446520E+00    4.1477403320263662E+00    6.2183774518555790E+00
Au    4.1501933618209277E+00    2.0738705705404215E+00    6.2183774518555790E+00
Au    4.1501941486500504E+00    6.2216100935123126E+00    6.2183774518555790E+00
Au    6.2252695721972042E+00    8.0905447625772814E-07    6.2183774518555790E+00
Au    6.2252703590263279E+00    4.1477403320263662E+00    6.2183774518555790E+00
Au    5.3014432923253518E-05    1.0787393016769706E-06    8.2911699358074387E+00
Au    5.3801262045966857E-05    4.1477406017111917E+00    8.2911699358074387E+00
Au    2.0751300116383216E+00    2.0738708402252466E+00    8.2911699358074387E+00
Au    2.0751307984674443E+00    6.2216103631971373E+00    8.2911699358074387E+00
Au    4.1502062220145968E+00    1.0787393016769706E-06    8.2911699358074387E+00
Au    4.1502070088437195E+00    4.1477406017111917E+00    8.2911699358074387E+00
Au    6.2252832192199961E+00    2.0738708402252466E+00    8.2911699358074387E+00
Au    6.2252840060491197E+00    6.2216103631971373E+00    8.2911699358074387E+00
Au    6.3027425011037911E-05    2.0738722329337684E+00    1.0367094850817306E+01
Au    6.5533645120317298E-05    6.2216009877290297E+00    1.0362511750677516E+01
Au    2.0750746806523481E+00    1.6009378246367403E-04    1.0362419963508911E+01
Au    2.0750709933003764E+00    4.1475980004819766E+00    1.0362403521907240E+01
Au    4.1502195779304989E+00    2.0738553136891182E+00    1.0355263520031716E+01
Au    4.1502178917443935E+00    6.2215803706604955E+00    1.0366845654940152E+01
Au    6.2253663327603466E+00    1.6111108572659224E-04    1.0362418947132381E+01
Au    6.2253717224036667E+00    4.1475970141040603E+00    1.0362402245232179E+01
Au    8.2455079079031811E-05   -9.5770597817561624E-04    1.2437278392627151E+01
Au    8.3393634701098813E-05    4.1487160296020233E+00    1.2437293695228215E+01
Au    2.0610472139486258E+00    2.0738883860351334E+00    1.2439556174683656E+01
Au    2.0740709967614204E+00    6.2216094406047331E+00    1.2437245989777828E+01
Au    4.1502309142276310E+00   -1.4896587909116101E-02    1.2437963871694640E+01
Au    4.1502320357041356E+00    4.1624620447926688E+00    1.2438106358496754E+01
Au    6.2393873635840613E+00    2.0738887366610612E+00    1.2439585617492465E+01
Au    6.2263973537164174E+00    6.2216096070714881E+00    1.2437247994382721E+01
S    4.1503319365193372E+00    2.0744410025523483E+00    1.4092638825895786E+01
C    4.1495314646873558E+00    2.0800161826141648E+00    1.5854431995528296E+01
H    2.0250067901587285E+00    2.1032714599928779E+00    1.6019007355984204E+01
H    6.2751010166742178E+00    2.1032693280911747E+00    1.6025343766205186E+01
C    2.9608743000882010E+00    2.0820270894704387E+00    1.6570650422592884E+01
C    5.3362793085721858E+00    2.0820412856574375E+00    1.6573136032004840E+01
C    2.9533457427659973E+00    2.0637160700337769E+00    1.7948188885976485E+01
C    5.3286991289642192E+00    2.0637240715710115E+00    1.7950264723934879E+01
H    2.0142028290228491E+00    2.0424756887940876E+00    1.8495423897507592E+01
H    6.2646699830603394E+00    2.0424736839153224E+00    1.8501710675578448E+01
C    4.1404046577588867E+00    2.0658377790742963E+00    1.8666756832377974E+01
S    4.1493797576266509E+00    2.0732303706928890E+00    2.0428591806081425E+01
Au    1.3078802354244974E-04   -9.3434180519362585E-04    2.2083244365023990E+01
Au    1.3159072692919512E-04    4.1486622177567014E+00    2.2083260894481999E+01
Au    2.0611307785120925E+00    2.0738623620729277E+00    2.2080818510420869E+01
Au    2.0741635892020027E+00    6.2216067694627695E+00    2.2083285043072546E+01
Au    4.1503034428719854E+00   -1.4814495092219776E-02    2.2082383494089857E+01
Au    4.1503045922501318E+00    4.1627654006808577E+00    2.2082550047241106E+01
Au    6.2397052159624611E+00    2.0738627734334183E+00    2.2081058561067081E+01
Au    6.2253721972077960E+00    6.2216121577135297E+00    2.2083789098196217E+01
Au    1.5485261439166089E-04    2.0738729044264645E+00    2.4156581582148078E+01
Au    1.5563944351437454E-04    6.2216124273983553E+00    2.4156581582148078E+01
Au    2.0752310629906674E+00    3.1429405196832068E-06    2.4156581582148078E+01
Au    2.0752318498197901E+00    4.1477426659124097E+00    2.4156581582148078E+01
Au    4.1503080601960658E+00    2.0738729044264645E+00    2.4156581582148078E+01
Au    4.1503088470251877E+00    6.2216124273983553E+00    2.4156581582148078E+01
Au    6.2253842705723414E+00    3.1429405196834799E-06    2.4156581582148078E+01
Au    6.2253850574014651E+00    4.1477426659124097E+00    2.4156581582148078E+01
Au    1.6771280806111713E-04    3.4126253451027905E-06    2.6229374066099943E+01
Au    1.6849963718383113E-04    4.1477429355972344E+00    2.6229374066099943E+01
Au    2.0752447100134597E+00    2.0738731741112897E+00    2.6229374066099943E+01
Au    2.0752454968425824E+00    6.2216126970831809E+00    2.6229374066099943E+01
Au    4.1503209203897349E+00    3.4126253451027829E-06    2.6229374066099943E+01
Au    4.1503217072188576E+00    4.1477429355972344E+00    2.6229374066099943E+01
Au    6.2253979175951342E+00    2.0738731741112897E+00    2.6229374066099943E+01
Au    6.2253987044242578E+00    6.2216126970831809E+00    2.6229374066099943E+01
Au    1.8135983085328751E-04    2.0738734437961153E+00    2.8302166550051805E+01
Au    1.8214665997600085E-04    6.2216129667680065E+00    2.8302166550051805E+01
Au    2.0752575702071288E+00    3.6823101705211062E-06    2.8302166550051805E+01
Au    2.0752583570362515E+00    4.1477432052820600E+00    2.8302166550051805E+01
Au    4.1503345674125267E+00    2.0738734437961153E+00    2.8302166550051805E+01
Au    4.1503353542416495E+00    6.2216129667680065E+00    2.8302166550051805E+01
Au    6.2254107777888033E+00    3.6823101705222679E-06    2.8302166550051805E+01
Au    6.2254115646179260E+00    4.1477432052820600E+00    2.8302166550051805E+01
Au    1.9422002452274421E-04    3.9519949959412037E-06    3.0374959034003663E+01
Au    1.9500685364545739E-04    4.1477434749668856E+00    3.0374959034003663E+01
Au    2.0752712172299210E+00    2.0738737134809409E+00    3.0374959034003663E+01
Au    2.0752720040590438E+00    6.2216132364528320E+00    3.0374959034003663E+01
Au    4.1503474276061967E+00    3.9519949959414409E-06    3.0374959034003663E+01
Au    4.1503482144353194E+00    4.1477434749668856E+00    3.0374959034003663E+01
Au    6.2254244248115960E+00    2.0738737134809409E+00    3.0374959034003663E+01
Au    6.2254252116407187E+00    6.2216132364528320E+00    3.0374959034003663E+01
Au    2.0786704731491398E-04    2.0738739831657664E+00    3.2447751517955517E+01
Au    2.0865387643762779E-04    6.2216135061376576E+00    3.2447751517955517E+01
Au    2.0752840774235906E+00    4.2216798213604762E-06    3.2447751517955517E+01
Au    2.0752848642527133E+00    4.1477437446517111E+00    3.2447751517955517E+01
Au    4.1503610746289894E+00    2.0738739831657664E+00    3.2447751517955517E+01
Au    4.1503618614581113E+00    6.2216135061376576E+00    3.2447751517955517E+01
Au    6.2254372850052651E+00    4.2216798213596063E-06    3.2447751517955517E+01
Au    6.2254380718343878E+00    4.1477437446517111E+00    3.2447751517955517E+01
     &END COORD
     &KIND Au
       BASIS_SET SZV-MOLOPT-SR-GTH
       POTENTIAL GTH-PADE-q11
       &POTENTIAL
 1 0 10
  0.5900000000000000E+00 1  0.1160442790000000E+02
 3
  0.5211797500000001E+00 2  0.2538613590000000E+01 -0.1046136640000000E+01
  0.2701113200000000E+01
  0.6306130599999999E+00 2  0.3948527000000000E+00 -0.8695921300000000E+00
  0.2057830560000000E+01
  0.4407064300000000E+00 2 -0.4719069660000000E+01  0.7277708100000000E+00
 -0.1650429070000000E+01
         # Potential name:  GTH-PADE-Q11  for symbol:  AU
         # Potential read from the potential filename: GTH_POTENTIALS
       &END POTENTIAL
     &END KIND
     &KIND C
       BASIS_SET DZVP-MOLOPT-SR-GTH
       ELEMENT C
       POTENTIAL GTH-PADE-q4
       &POTENTIAL
 2 2
  0.3488304500000000E+00 2 -0.8513771100000000E+01  0.1228432030000000E+01
 2
  0.3045532100000000E+00 1  0.9522841789999999E+01
  0.2326773000000000E+00 0
         # Potential name:  GTH-PADE-Q4  for symbol:  C
         # Potential read from the potential filename: GTH_POTENTIALS
       &END POTENTIAL
     &END KIND
     &KIND S
       BASIS_SET DZVP-MOLOPT-SR-GTH
       ELEMENT S
       POTENTIAL GTH-PADE-q6
       &POTENTIAL
 2 4
  0.4200000000000000E+00 1 -0.6554491840000000E+01
 2
  0.3617566500000000E+00 2  0.7905302500000000E+01 -0.1731881300000000E+01
  0.4471698300000000E+01
  0.4052850200000000E+00 1  0.3866579000000000E+01
         # Potential name:  GTH-PADE-Q6  for symbol:  S
         # Potential read from the potential filename: GTH_POTENTIALS
       &END POTENTIAL
     &END KIND
     &KIND H
       BASIS_SET DZVP-MOLOPT-SR-GTH
       ELEMENT H
       POTENTIAL GTH-PADE-q1
       &POTENTIAL
 1
  0.2000000000000000E+00 2 -0.4180236800000000E+01  0.7250748200000000E+00
 0
         # Potential name:  GTH-PADE-Q1  for symbol:  H
         # Potential read from the potential filename: GTH_POTENTIALS
       &END POTENTIAL
     &END KIND
     &TOPOLOGY
       COORD_FILE_NAME em.xyz
       COORD_FILE_FORMAT  XYZ
       NUMBER_OF_ATOMS  116
       MULTIPLE_UNIT_CELL  1 1 1
     &END TOPOLOGY
   &END SUBSYS
 &END FORCE_EVAL
