 # Version information for this restart file 
 # current date 2023-02-22 11:17:11.456
 # current working dir /work4/scd/scarf1157/work/testing/cp2k-smeagol/bdt/cp2k/hollow-site/transport-cp2k/5-4/geometry-ordered/3x3-4/sz/bulk_layers-4/geo_opt/dzvp/Au-S-2.65_dft_cell-opt
 # Program compiled at                              Thu 26 Jan 13:39:53 GMT 2023
 # Program compiled on                                     cn1108.scarf.rl.ac.uk
 # Program compiled for                                                    local
 # Source code revision number                                       git:1ef701d
 &GLOBAL
   EXTENDED_FFT_LENGTHS  T
   PRINT_LEVEL  MEDIUM
   PROJECT_NAME dft_wfn
   RUN_TYPE  CELL_OPT
 &END GLOBAL
 &MOTION
   &CELL_OPT
     OPTIMIZER  BFGS
     MAX_ITER  1000
     STEP_START_VAL  4
     TYPE  DIRECT_CELL_OPT
     KEEP_SYMMETRY  T
   &END CELL_OPT
   &CONSTRAINT
     &FIXED_ATOMS
       LIST  1..40 76..116
     &END FIXED_ATOMS
   &END CONSTRAINT
   &PRINT
     &TRAJECTORY  ON
       FORMAT  XMOL
     &END TRAJECTORY
   &END PRINT
 &END MOTION
 &FORCE_EVAL
   METHOD  QS
   STRESS_TENSOR  ANALYTICAL
   &DFT
     BASIS_SET_FILE_NAME BASIS_MOLOPT
     POTENTIAL_FILE_NAME GTH_POTENTIALS
     &SCF
       MAX_SCF  100
       EPS_SCF     9.9999999999999995E-08
       SCF_GUESS  ATOMIC
       ADDED_MOS  100
       &SMEAR  T
         METHOD  FERMI_DIRAC
         ELECTRONIC_TEMPERATURE     2.9300000000000000E+02
       &END SMEAR
       &MIXING  T
         METHOD  BROYDEN_MIXING
         ALPHA     2.9999999999999999E-01
         NBUFFER  8
       &END MIXING
       &PRINT
         &RESTART  SILENT
           FILENAME RESTART_0
         &END RESTART
       &END PRINT
     &END SCF
     &MGRID
       CUTOFF     4.0000000000000000E+02
     &END MGRID
     &XC
       DENSITY_CUTOFF     1.0000000000000000E-10
       GRADIENT_CUTOFF     1.0000000000000000E-10
       TAU_CUTOFF     1.0000000000000000E-10
       &XC_FUNCTIONAL  NO_SHORTCUT
         &PADE  T
         &END PADE
       &END XC_FUNCTIONAL
     &END XC
     &POISSON
       PERIODIC  XYZ
     &END POISSON
     &KPOINTS
       SCHEME MONKHORST-PACK 2 2 1
       SYMMETRY  F
       FULL_GRID  T
       VERBOSE  T
       EPS_GEO     1.0000000000000000E-08
       PARALLEL_GROUP_SIZE  0
     &END KPOINTS
     &PRINT
       &E_DENSITY_CUBE  ON
         STRIDE  2 2 2
       &END E_DENSITY_CUBE
       &V_HARTREE_CUBE  SILENT
         STRIDE  2 2 2
       &END V_HARTREE_CUBE
       &HIRSHFELD  SILENT
         SHAPE_FUNCTION  DENSITY
       &END HIRSHFELD
     &END PRINT
   &END DFT
   &SUBSYS
     &CELL
       A     8.2920269228444869E+00    0.0000000000000000E+00    0.0000000000000000E+00
       B    -2.6928496255660290E-05    8.2950499201343728E+00    0.0000000000000000E+00
       C     6.8453720963277851E-04    8.4747391552228026E-05    3.4502847556689076E+01
       PERIODIC  XYZ
       MULTIPLE_UNIT_CELL  1 1 1
     &END CELL
     &COORD
Au    0.0000000000000000E+00    0.0000000000000000E+00    0.0000000000000000E+00
Au   -1.3464248127830145E-05    4.1475249600671864E+00    0.0000000000000000E+00
Au    2.0729999985870577E+00    2.0737624800335932E+00    0.0000000000000000E+00
Au    2.0729865343389298E+00    6.2212874401007809E+00    0.0000000000000000E+00
Au    4.1460134614222435E+00    0.0000000000000000E+00    0.0000000000000000E+00
Au    4.1459999971741155E+00    4.1475249600671864E+00    0.0000000000000000E+00
Au    6.2190134600093021E+00    2.0737624800335932E+00    0.0000000000000000E+00
Au    6.2189999957611741E+00    6.2212874401007809E+00    0.0000000000000000E+00
Au    3.4371039983378113E-05    2.0737675687064785E+00    2.0717298976079381E+00
Au    2.0906791855547963E-05    6.2212925287736667E+00    2.0717298976079381E+00
Au    2.0730478338751688E+00    5.0886728851746242E-06    2.0717298976079381E+00
Au    2.0730343696270408E+00    4.1475300487400721E+00    2.0717298976079381E+00
Au    4.1460478324622265E+00    2.0737675687064785E+00    2.0717298976079381E+00
Au    4.1460343682140985E+00    6.2212925287736667E+00    2.0717298976079381E+00
Au    6.2190612952974131E+00    5.0886728851746242E-06    2.0717298976079381E+00
Au    6.2190478310492852E+00    4.1475300487400721E+00    2.0717298976079381E+00
Au    8.2206328094586363E-05    1.0177345770349248E-05    4.1434597952158763E+00
Au    6.8742079966756226E-05    4.1475351374129570E+00    4.1434597952158763E+00
Au    2.0730822049151523E+00    2.0737726573793638E+00    4.1434597952158763E+00
Au    2.0730687406670243E+00    6.2212976174465515E+00    4.1434597952158763E+00
Au    4.1460956677503376E+00    1.0177345770349248E-05    4.1434597952158763E+00
Au    4.1460822035022096E+00    4.1475351374129570E+00    4.1434597952158763E+00
Au    6.2190956663373971E+00    2.0737726573793638E+00    4.1434597952158763E+00
Au    6.2190822020892682E+00    6.2212976174465515E+00    4.1434597952158763E+00
Au    1.1657736807796449E-04    2.0737777460522491E+00    6.2151896928238148E+00
Au    1.0311311995013435E-04    6.2213027061194373E+00    6.2151896928238148E+00
Au    2.0731300402032633E+00    1.5266018655523872E-05    6.2151896928238148E+00
Au    2.0731165759551353E+00    4.1475402260858427E+00    6.2151896928238148E+00
Au    4.1461300387903206E+00    2.0737777460522491E+00    6.2151896928238148E+00
Au    4.1461165745421935E+00    6.2213027061194373E+00    6.2151896928238148E+00
Au    6.2191435016255081E+00    1.5266018655523872E-05    6.2151896928238148E+00
Au    6.2191300373773801E+00    4.1475402260858427E+00    6.2151896928238148E+00
Au    1.6441265618917273E-04    2.0354691540698497E-05    8.2869195904317525E+00
Au    1.5094840806134259E-04    4.1475453147587276E+00    8.2869195904317525E+00
Au    2.0731644112432468E+00    2.0737828347251339E+00    8.2869195904317525E+00
Au    2.0731509469951188E+00    6.2213077947923221E+00    8.2869195904317525E+00
Au    4.1461778740784325E+00    2.0354691540698497E-05    8.2869195904317525E+00
Au    4.1461644098303045E+00    4.1475453147587276E+00    8.2869195904317525E+00
Au    6.2191778726654912E+00    2.0737828347251339E+00    8.2869195904317525E+00
Au    6.2191644084173632E+00    6.2213077947923221E+00    8.2869195904317525E+00
Au    2.1327365126987919E-04    2.0737998674786073E+00    1.0372275826364531E+01
Au    1.8181205094585268E-04    6.2212690073477566E+00    1.0351784010584430E+01
Au    2.0735078504974931E+00    1.7130807781693884E-03    1.0351615550118767E+01
Au    2.0734906106760485E+00    4.1459492860691265E+00    1.0351530832816641E+01
Au    4.1462269582821865E+00    2.0736978491927904E+00    1.0322719200243004E+01
Au    4.1461867211980969E+00    6.2210768937230974E+00    1.0370464066963560E+01
Au    6.2189239439282202E+00    1.7203989900543061E-03    1.0351630269813452E+01
Au    6.2189149418249752E+00    4.1459421991760017E+00    1.0351544530671871E+01
Au    2.5446844994245926E-04   -7.9946567976253470E-03    1.2433330781108358E+01
Au    2.4168441230043179E-04    4.1556734437311107E+00    1.2433414130235979E+01
Au    2.0071134093464225E+00    2.0738292306527524E+00    1.2446259852424133E+01
Au    2.0643376380942740E+00    6.2213162591538573E+00    1.2433158240515052E+01
Au    4.1462498913198154E+00   -7.0548179312143064E-02    1.2437293962521194E+01
Au    4.1462370856495250E+00    4.2172595492667355E+00    1.2438117384718360E+01
Au    6.2854420359469287E+00    2.0738303024294291E+00    1.2446232001132158E+01
Au    6.2281325055068315E+00    6.2213170037862833E+00    1.2433171318037717E+01
S    4.1462903183799940E+00    2.0772611511337655E+00    1.4101355680868553E+01
C    4.1427831661346168E+00    2.0866055740243294E+00    1.5860211150778630E+01
H    1.9954302334663352E+00    2.0984651684443656E+00    1.6002833611750962E+01
H    6.2950662428091801E+00    2.0984068242105334E+00    1.6011868600375397E+01
C    2.9337288713337140E+00    2.0790509879866428E+00    1.6554739679136240E+01
C    5.3508024613520115E+00    2.0791144227797553E+00    1.6558630789687893E+01
C    2.9314378523352014E+00    2.0665951632911010E+00    1.7944746820415400E+01
C    5.3486896344284887E+00    2.0666161939346748E+00    1.7948132557720061E+01
H    1.9865786007115331E+00    2.0472269446095916E+00    1.8491532194115308E+01
H    6.2865567456232032E+00    2.0471621366732951E+00    1.8500352448444616E+01
C    4.1399133639061123E+00    2.0595248505590940E+00    1.8643410576991805E+01
S    4.1423083924486850E+00    2.0699861366802730E+00    2.0400950851580088E+01
Au    3.2461227895142457E-04   -7.2979268536006395E-03    2.2069272962342104E+01
Au    3.1047377649511828E-04    4.1548227827800464E+00    2.2069361376846260E+01
Au    2.0059083210860473E+00    2.0738276533108828E+00    2.2055318215025629E+01
Au    2.0652477897575494E+00    6.2213108617366766E+00    2.2069367436377817E+01
Au    4.1464483863987605E+00   -7.1219348512394740E-02    2.2063740865609674E+01
Au    4.1464362221194921E+00    4.2198124287179537E+00    2.2064677672409278E+01
Au    6.2878209751062224E+00    2.0738293632795268E+00    2.2056335607149212E+01
Au    6.2194379139865230E+00    6.2213416554550225E+00    2.2072468171041443E+01
Au    4.7228926533239850E-04    2.0738217840607196E+00    2.4144198068649384E+01
Au    4.5882501720457077E-04    6.2213467441279073E+00    2.4144198068649384E+01
Au    2.0734857521005177E+00    5.9304027126354765E-05    2.4144198068649384E+01
Au    2.0734722878523897E+00    4.1475842640943137E+00    2.4144198068649384E+01
Au    4.1464857506875754E+00    2.0738217840607196E+00    2.4144198068649384E+01
Au    4.1464722864394474E+00    6.2213467441279073E+00    2.4144198068649384E+01
Au    6.2194992135227620E+00    5.9304027126356561E-05    2.4144198068649384E+01
Au    6.2194857492746340E+00    4.1475842640943137E+00    2.4144198068649384E+01
Au    5.2012455344360308E-04    6.4392700011531951E-05    2.6215927966257322E+01
Au    5.0666030531577855E-04    4.1475893527671985E+00    2.6215927966257322E+01
Au    2.0735201231405016E+00    2.0738268727336049E+00    2.6215927966257322E+01
Au    2.0735066588923736E+00    6.2213518328007931E+00    2.6215927966257322E+01
Au    4.1465335859756864E+00    6.4392700011531152E-05    2.6215927966257322E+01
Au    4.1465201217275593E+00    4.1475893527671985E+00    2.6215927966257322E+01
Au    6.2195335845627460E+00    2.0738268727336049E+00    2.6215927966257322E+01
Au    6.2195201203146180E+00    6.2213518328007931E+00    2.6215927966257322E+01
Au    5.5449559342698378E-04    2.0738319614064902E+00    2.8287657863865263E+01
Au    5.4103134529915405E-04    6.2213569214736779E+00    2.8287657863865263E+01
Au    2.0735679584286126E+00    6.9481372896699041E-05    2.8287657863865263E+01
Au    2.0735544941804847E+00    4.1475944414400834E+00    2.8287657863865263E+01
Au    4.1465679570156704E+00    2.0738319614064902E+00    2.8287657863865263E+01
Au    4.1465544927675424E+00    6.2213569214736779E+00    2.8287657863865263E+01
Au    6.2195814198508561E+00    6.9481372896707213E-05    2.8287657863865263E+01
Au    6.2195679556027281E+00    4.1475944414400834E+00    2.8287657863865263E+01
Au    6.0233088153819226E-04    7.4570045781879738E-05    3.0359387761473201E+01
Au    5.8886663341036036E-04    4.1475995301129682E+00    3.0359387761473201E+01
Au    2.0736023294685961E+00    2.0738370500793755E+00    3.0359387761473201E+01
Au    2.0735888652204681E+00    6.2213620101465636E+00    3.0359387761473201E+01
Au    4.1466157923037814E+00    7.4570045781882557E-05    3.0359387761473201E+01
Au    4.1466023280556534E+00    4.1475995301129682E+00    3.0359387761473201E+01
Au    6.2196157908908400E+00    2.0738370500793755E+00    3.0359387761473201E+01
Au    6.2196023266427121E+00    6.2213620101465636E+00    3.0359387761473201E+01
Au    6.3670192152156992E-04    2.0738421387522608E+00    3.2431117659081139E+01
Au    6.2323767339373868E-04    6.2213670988194485E+00    3.2431117659081139E+01
Au    2.0736501647567072E+00    7.9658718667060150E-05    3.2431117659081139E+01
Au    2.0736367005085792E+00    4.1476046187858540E+00    3.2431117659081139E+01
Au    4.1466501633437645E+00    2.0738421387522608E+00    3.2431117659081139E+01
Au    4.1466366990956365E+00    6.2213670988194485E+00    3.2431117659081139E+01
Au    6.2196636261789511E+00    7.9658718667043534E-05    3.2431117659081139E+01
Au    6.2196501619308231E+00    4.1476046187858540E+00    3.2431117659081139E+01
     &END COORD
     &KIND Au
       BASIS_SET SZV-MOLOPT-SR-GTH
       POTENTIAL GTH-PADE-q11
       &POTENTIAL
 1 0 10
  0.5900000000000000E+00 1  0.1160442790000000E+02
 3
  0.5211797500000001E+00 2  0.2538613590000000E+01 -0.1046136640000000E+01
  0.2701113200000000E+01
  0.6306130599999999E+00 2  0.3948527000000000E+00 -0.8695921300000000E+00
  0.2057830560000000E+01
  0.4407064300000000E+00 2 -0.4719069660000000E+01  0.7277708100000000E+00
 -0.1650429070000000E+01
         # Potential name:  GTH-PADE-Q11  for symbol:  AU
         # Potential read from the potential filename: GTH_POTENTIALS
       &END POTENTIAL
     &END KIND
     &KIND C
       BASIS_SET DZVP-MOLOPT-SR-GTH
       ELEMENT C
       POTENTIAL GTH-PADE-q4
       &POTENTIAL
 2 2
  0.3488304500000000E+00 2 -0.8513771100000000E+01  0.1228432030000000E+01
 2
  0.3045532100000000E+00 1  0.9522841789999999E+01
  0.2326773000000000E+00 0
         # Potential name:  GTH-PADE-Q4  for symbol:  C
         # Potential read from the potential filename: GTH_POTENTIALS
       &END POTENTIAL
     &END KIND
     &KIND S
       BASIS_SET DZVP-MOLOPT-SR-GTH
       ELEMENT S
       POTENTIAL GTH-PADE-q6
       &POTENTIAL
 2 4
  0.4200000000000000E+00 1 -0.6554491840000000E+01
 2
  0.3617566500000000E+00 2  0.7905302500000000E+01 -0.1731881300000000E+01
  0.4471698300000000E+01
  0.4052850200000000E+00 1  0.3866579000000000E+01
         # Potential name:  GTH-PADE-Q6  for symbol:  S
         # Potential read from the potential filename: GTH_POTENTIALS
       &END POTENTIAL
     &END KIND
     &KIND H
       BASIS_SET DZVP-MOLOPT-SR-GTH
       ELEMENT H
       POTENTIAL GTH-PADE-q1
       &POTENTIAL
 1
  0.2000000000000000E+00 2 -0.4180236800000000E+01  0.7250748200000000E+00
 0
         # Potential name:  GTH-PADE-Q1  for symbol:  H
         # Potential read from the potential filename: GTH_POTENTIALS
       &END POTENTIAL
     &END KIND
     &TOPOLOGY
       COORD_FILE_NAME em.xyz
       COORD_FILE_FORMAT  XYZ
       NUMBER_OF_ATOMS  116
       MULTIPLE_UNIT_CELL  1 1 1
     &END TOPOLOGY
   &END SUBSYS
 &END FORCE_EVAL
