 # Version information for this restart file 
 # current date 2023-02-22 11:17:58.984
 # current working dir /work4/scd/scarf1157/work/testing/cp2k-smeagol/bdt/cp2k/hollow-site/transport-cp2k/5-4/geometry-ordered/3x3-4/sz/bulk_layers-4/geo_opt/dzvp/Au-S-2.65_dft_cell-opt
 # Program compiled at                              Thu 26 Jan 13:39:53 GMT 2023
 # Program compiled on                                     cn1108.scarf.rl.ac.uk
 # Program compiled for                                                    local
 # Source code revision number                                       git:1ef701d
 &GLOBAL
   EXTENDED_FFT_LENGTHS  T
   PRINT_LEVEL  MEDIUM
   PROJECT_NAME dft_wfn
   RUN_TYPE  CELL_OPT
 &END GLOBAL
 &MOTION
   &CELL_OPT
     OPTIMIZER  BFGS
     MAX_ITER  1000
     STEP_START_VAL  5
     TYPE  DIRECT_CELL_OPT
     KEEP_SYMMETRY  T
   &END CELL_OPT
   &CONSTRAINT
     &FIXED_ATOMS
       LIST  1..40 76..116
     &END FIXED_ATOMS
   &END CONSTRAINT
   &PRINT
     &TRAJECTORY  ON
       FORMAT  XMOL
     &END TRAJECTORY
   &END PRINT
 &END MOTION
 &FORCE_EVAL
   METHOD  QS
   STRESS_TENSOR  ANALYTICAL
   &DFT
     BASIS_SET_FILE_NAME BASIS_MOLOPT
     POTENTIAL_FILE_NAME GTH_POTENTIALS
     &SCF
       MAX_SCF  100
       EPS_SCF     9.9999999999999995E-08
       SCF_GUESS  ATOMIC
       ADDED_MOS  100
       &SMEAR  T
         METHOD  FERMI_DIRAC
         ELECTRONIC_TEMPERATURE     2.9300000000000000E+02
       &END SMEAR
       &MIXING  T
         METHOD  BROYDEN_MIXING
         ALPHA     2.9999999999999999E-01
         NBUFFER  8
       &END MIXING
       &PRINT
         &RESTART  SILENT
           FILENAME RESTART_0
         &END RESTART
       &END PRINT
     &END SCF
     &MGRID
       CUTOFF     4.0000000000000000E+02
     &END MGRID
     &XC
       DENSITY_CUTOFF     1.0000000000000000E-10
       GRADIENT_CUTOFF     1.0000000000000000E-10
       TAU_CUTOFF     1.0000000000000000E-10
       &XC_FUNCTIONAL  NO_SHORTCUT
         &PADE  T
         &END PADE
       &END XC_FUNCTIONAL
     &END XC
     &POISSON
       PERIODIC  XYZ
     &END POISSON
     &KPOINTS
       SCHEME MONKHORST-PACK 2 2 1
       SYMMETRY  F
       FULL_GRID  T
       VERBOSE  T
       EPS_GEO     1.0000000000000000E-08
       PARALLEL_GROUP_SIZE  0
     &END KPOINTS
     &PRINT
       &E_DENSITY_CUBE  ON
         STRIDE  2 2 2
       &END E_DENSITY_CUBE
       &V_HARTREE_CUBE  SILENT
         STRIDE  2 2 2
       &END V_HARTREE_CUBE
       &HIRSHFELD  SILENT
         SHAPE_FUNCTION  DENSITY
       &END HIRSHFELD
     &END PRINT
   &END DFT
   &SUBSYS
     &CELL
       A     8.2840589034795666E+00    0.0000000000000000E+00    0.0000000000000000E+00
       B    -3.7744732544994753E-05    8.2973782628388779E+00    0.0000000000000000E+00
       C     7.6457039939311960E-04    1.3604211775852321E-04    3.4496701947935769E+01
       PERIODIC  XYZ
       MULTIPLE_UNIT_CELL  1 1 1
     &END CELL
     &COORD
Au    0.0000000000000000E+00    0.0000000000000000E+00    0.0000000000000000E+00
Au   -1.8872366272497376E-05    4.1486891314194390E+00    0.0000000000000000E+00
Au    2.0710052896867555E+00    2.0743445657097195E+00    0.0000000000000000E+00
Au    2.0709864173204826E+00    6.2230336971291598E+00    0.0000000000000000E+00
Au    4.1420294517397833E+00    0.0000000000000000E+00    0.0000000000000000E+00
Au    4.1420105793735109E+00    4.1486891314194390E+00    0.0000000000000000E+00
Au    6.2130347414265383E+00    2.0743445657097195E+00    0.0000000000000000E+00
Au    6.2130158690602659E+00    6.2230336971291598E+00    0.0000000000000000E+00
Au    3.6472588672983649E-05    2.0743527343839783E+00    2.0713608833875230E+00
Au    1.7600222400486263E-05    6.2230418658034186E+00    2.0713608833875230E+00
Au    2.0710606346417006E+00    8.1686742588755244E-06    2.0713608833875230E+00
Au    2.0710417622754282E+00    4.1486973000936977E+00    2.0713608833875230E+00
Au    4.1420659243284561E+00    2.0743527343839783E+00    2.0713608833875230E+00
Au    4.1420470519621828E+00    6.2230418658034186E+00    2.0713608833875230E+00
Au    6.2130900863814844E+00    8.1686742588755244E-06    2.0713608833875230E+00
Au    6.2130712140152129E+00    4.1486973000936977E+00    2.0713608833875230E+00
Au    9.1817543618464661E-05    1.6337348517751049E-05    4.1427217667750460E+00
Au    7.2945177345967298E-05    4.1487054687679565E+00    4.1427217667750460E+00
Au    2.0710971072303739E+00    2.0743609030582371E+00    4.1427217667750460E+00
Au    2.0710782348641010E+00    6.2230500344776774E+00    4.1427217667750460E+00
Au    4.1421212692834013E+00    1.6337348517751049E-05    4.1427217667750460E+00
Au    4.1421023969171289E+00    4.1487054687679565E+00    4.1427217667750460E+00
Au    6.2131265589701572E+00    2.0743609030582371E+00    4.1427217667750460E+00
Au    6.2131076866038848E+00    6.2230500344776774E+00    4.1427217667750460E+00
Au    1.2829013229144834E-04    2.0743690717324959E+00    6.2140826501625694E+00
Au    1.0941776601895095E-04    6.2230582031519361E+00    6.2140826501625694E+00
Au    2.0711524521853191E+00    2.4506022776626578E-05    6.2140826501625694E+00
Au    2.0711335798190467E+00    4.1487136374422153E+00    6.2140826501625694E+00
Au    4.1421577418720741E+00    2.0743690717324959E+00    6.2140826501625694E+00
Au    4.1421388695058017E+00    6.2230582031519361E+00    6.2140826501625694E+00
Au    6.2131819039251033E+00    2.4506022776626578E-05    6.2140826501625694E+00
Au    6.2131630315588309E+00    4.1487136374422153E+00    6.2140826501625694E+00
Au    1.8363508723692932E-04    3.2674697035502098E-05    8.2854435335500920E+00
Au    1.6476272096443195E-04    4.1487218061164741E+00    8.2854435335500920E+00
Au    2.0711889247739923E+00    2.0743772404067551E+00    8.2854435335500920E+00
Au    2.0711700524077195E+00    6.2230663718261949E+00    8.2854435335500920E+00
Au    4.1422130868270202E+00    3.2674697035502098E-05    8.2854435335500920E+00
Au    4.1421942144607478E+00    4.1487218061164741E+00    8.2854435335500920E+00
Au    6.2132183765137752E+00    2.0743772404067551E+00    8.2854435335500920E+00
Au    6.2131995041475028E+00    6.2230663718261949E+00    8.2854435335500920E+00
Au    2.4999774927010219E-04    2.0744062858762851E+00    1.0371624474567595E+01
Au    1.9806344146502386E-04    6.2230246300054066E+00    1.0348707759317477E+01
Au    2.0721261802312854E+00    2.7781498150470786E-03    1.0349010477943791E+01
Au    2.0721149941538992E+00    4.1460971253636325E+00    1.0348910466260879E+01
Au    4.1422698861722660E+00    2.0742714528851196E+00    1.0318668514023166E+01
Au    4.1422166545778536E+00    6.2227204284354807E+00    1.0368859745004713E+01
Au    6.2123821385164417E+00    2.7856083551196869E-03    1.0349032794835432E+01
Au    6.2123564747370477E+00    4.1460899910289966E+00    1.0348931608941241E+01
Au    2.8476801030019101E-04   -1.2155975224776497E-02    1.2432481013856370E+01
Au    2.6686063605504045E-04    4.1610673935544620E+00    1.2432581534169481E+01
Au    1.9942321537869612E+00    2.0743997143335600E+00    1.2449204463145055E+01
Au    2.0578102005236061E+00    6.2230842335829974E+00    1.2432228381438048E+01
Au    4.1422947746132266E+00   -8.2624116861894359E-02    1.2437767421207113E+01
Au    4.1422761454540185E+00    4.2303824037225812E+00    1.2438844006312948E+01
Au    6.2904661372406769E+00    2.0744006461626272E+00    1.2449128939902989E+01
Au    6.2267243870155102E+00    6.2230853240969966E+00    1.2432247171331879E+01
S    4.1422272500224393E+00    2.0790179013320675E+00    1.4097154614774251E+01
C    4.1390834620713024E+00    2.0879127431489342E+00    1.5859770989756678E+01
H    1.9875555360351100E+00    2.0973897450388179E+00    1.5998007942555711E+01
H    6.2932866402962926E+00    2.0973079691169145E+00    1.6007941224342208E+01
C    2.9267334403908629E+00    2.0799773652152482E+00    1.6555379153979676E+01
C    5.3498892303585910E+00    2.0800590523038678E+00    1.6558625070222718E+01
C    2.9245937160092215E+00    2.0669224727061724E+00    1.7938566183239175E+01
C    5.3478387066227713E+00    2.0669640056621206E+00    1.7941461970217549E+01
H    1.9807905919163444E+00    2.0495503850307646E+00    1.8489250409936815E+01
H    6.2867087734097424E+00    2.0494522571225300E+00    1.8499077530246755E+01
C    4.1356448495670408E+00    2.0595082606145723E+00    1.8637251924294979E+01
S    4.1375854740829894E+00    2.0693713769806736E+00    2.0398655241382475E+01
Au    2.6575937305772660E-04   -1.0976202877237971E-02    2.2063805821697411E+01
Au    2.4569187736787310E-04    4.1596912546393101E+00    2.2063912084258245E+01
Au    1.9919772205267734E+00    2.0744915132907167E+00    2.2045731901375987E+01
Au    2.0592290743707413E+00    6.2230821455340806E+00    2.2063832945699353E+01
Au    4.1423979672029692E+00   -8.3951343240637577E-02    2.2056258951537796E+01
Au    4.1423797673758926E+00    4.2339093469173568E+00    2.2057462829782104E+01
Au    6.2938922939931556E+00    2.0744930807352207E+00    2.2046930619941726E+01
Au    6.2135049868288039E+00    6.2231207272013647E+00    2.2068536647610628E+01
Au    5.2559035721071081E-04    2.0744397644561836E+00    2.4139897530998152E+01
Au    5.0671799093821620E-04    6.2231288958756235E+00    2.4139897530998152E+01
Au    2.0715497524102382E+00    9.5198746464145533E-05    2.4139897530998152E+01
Au    2.0715308800439658E+00    4.1487843301659035E+00    2.4139897530998152E+01
Au    4.1425550420969941E+00    2.0744397644561836E+00    2.4139897530998152E+01
Au    4.1425361697307208E+00    6.2231288958756235E+00    2.4139897530998152E+01
Au    6.2135792041500215E+00    9.5198746464147837E-05    2.4139897530998152E+01
Au    6.2135603317837491E+00    4.1487843301659035E+00    2.4139897530998152E+01
Au    5.8093531215618727E-04    1.0336742072302443E-04    2.6211258414385679E+01
Au    5.6206294588369624E-04    4.1487924988401623E+00    2.6211258414385679E+01
Au    2.0715862249989114E+00    2.0744479331304424E+00    2.6211258414385679E+01
Au    2.0715673526326390E+00    6.2231370645498831E+00    2.6211258414385679E+01
Au    4.1426103870519393E+00    1.0336742072302287E-04    2.6211258414385679E+01
Au    4.1425915146856669E+00    4.1487924988401623E+00    2.6211258414385679E+01
Au    6.2136156767386952E+00    2.0744479331304424E+00    2.6211258414385679E+01
Au    6.2135968043724228E+00    6.2231370645498831E+00    2.6211258414385679E+01
Au    6.1740790082917411E-04    2.0744561018047016E+00    2.8282619297773202E+01
Au    5.9853553455667733E-04    6.2231452332241419E+00    2.8282619297773202E+01
Au    2.0716415699538566E+00    1.1153609498189080E-04    2.8282619297773202E+01
Au    2.0716226975875842E+00    4.1488006675144211E+00    2.8282619297773202E+01
Au    4.1426468596406121E+00    2.0744561018047016E+00    2.8282619297773202E+01
Au    4.1426279872743397E+00    6.2231452332241419E+00    2.8282619297773202E+01
Au    6.2136710216936404E+00    1.1153609498190010E-04    2.8282619297773202E+01
Au    6.2136521493273680E+00    4.1488006675144211E+00    2.8282619297773202E+01
Au    6.7275285577465501E-04    1.1970476924077354E-04    3.0353980181160722E+01
Au    6.5388048950215595E-04    4.1488088361886799E+00    3.0353980181160722E+01
Au    2.0716780425425299E+00    2.0744642704789604E+00    3.0353980181160722E+01
Au    2.0716591701762574E+00    6.2231534018984007E+00    3.0353980181160722E+01
Au    4.1427022045955582E+00    1.1970476924077711E-04    3.0353980181160722E+01
Au    4.1426833322292858E+00    4.1488088361886799E+00    3.0353980181160722E+01
Au    6.2137074942823132E+00    2.0744642704789604E+00    3.0353980181160722E+01
Au    6.2136886219160408E+00    6.2231534018984007E+00    3.0353980181160722E+01
Au    7.0922544444763675E-04    2.0744724391532192E+00    3.2425341064548249E+01
Au    6.9035307817513661E-04    6.2231615705726586E+00    3.2425341064548249E+01
Au    2.0717333874974755E+00    1.2787344349965464E-04    3.2425341064548249E+01
Au    2.0717145151312031E+00    4.1488170048629387E+00    3.2425341064548249E+01
Au    4.1427386771842309E+00    2.0744724391532192E+00    3.2425341064548249E+01
Au    4.1427198048179577E+00    6.2231615705726586E+00    3.2425341064548249E+01
Au    6.2137628392372584E+00    1.2787344349963670E-04    3.2425341064548249E+01
Au    6.2137439668709860E+00    4.1488170048629387E+00    3.2425341064548249E+01
     &END COORD
     &KIND Au
       BASIS_SET SZV-MOLOPT-SR-GTH
       POTENTIAL GTH-PADE-q11
       &POTENTIAL
 1 0 10
  0.5900000000000000E+00 1  0.1160442790000000E+02
 3
  0.5211797500000001E+00 2  0.2538613590000000E+01 -0.1046136640000000E+01
  0.2701113200000000E+01
  0.6306130599999999E+00 2  0.3948527000000000E+00 -0.8695921300000000E+00
  0.2057830560000000E+01
  0.4407064300000000E+00 2 -0.4719069660000000E+01  0.7277708100000000E+00
 -0.1650429070000000E+01
         # Potential name:  GTH-PADE-Q11  for symbol:  AU
         # Potential read from the potential filename: GTH_POTENTIALS
       &END POTENTIAL
     &END KIND
     &KIND C
       BASIS_SET DZVP-MOLOPT-SR-GTH
       ELEMENT C
       POTENTIAL GTH-PADE-q4
       &POTENTIAL
 2 2
  0.3488304500000000E+00 2 -0.8513771100000000E+01  0.1228432030000000E+01
 2
  0.3045532100000000E+00 1  0.9522841789999999E+01
  0.2326773000000000E+00 0
         # Potential name:  GTH-PADE-Q4  for symbol:  C
         # Potential read from the potential filename: GTH_POTENTIALS
       &END POTENTIAL
     &END KIND
     &KIND S
       BASIS_SET DZVP-MOLOPT-SR-GTH
       ELEMENT S
       POTENTIAL GTH-PADE-q6
       &POTENTIAL
 2 4
  0.4200000000000000E+00 1 -0.6554491840000000E+01
 2
  0.3617566500000000E+00 2  0.7905302500000000E+01 -0.1731881300000000E+01
  0.4471698300000000E+01
  0.4052850200000000E+00 1  0.3866579000000000E+01
         # Potential name:  GTH-PADE-Q6  for symbol:  S
         # Potential read from the potential filename: GTH_POTENTIALS
       &END POTENTIAL
     &END KIND
     &KIND H
       BASIS_SET DZVP-MOLOPT-SR-GTH
       ELEMENT H
       POTENTIAL GTH-PADE-q1
       &POTENTIAL
 1
  0.2000000000000000E+00 2 -0.4180236800000000E+01  0.7250748200000000E+00
 0
         # Potential name:  GTH-PADE-Q1  for symbol:  H
         # Potential read from the potential filename: GTH_POTENTIALS
       &END POTENTIAL
     &END KIND
     &TOPOLOGY
       COORD_FILE_NAME em.xyz
       COORD_FILE_FORMAT  XYZ
       NUMBER_OF_ATOMS  116
       MULTIPLE_UNIT_CELL  1 1 1
     &END TOPOLOGY
   &END SUBSYS
 &END FORCE_EVAL
