 # Version information for this restart file 
 # current date 2023-02-22 11:18:46.858
 # current working dir /work4/scd/scarf1157/work/testing/cp2k-smeagol/bdt/cp2k/hollow-site/transport-cp2k/5-4/geometry-ordered/3x3-4/sz/bulk_layers-4/geo_opt/dzvp/Au-S-2.65_dft_cell-opt
 # Program compiled at                              Thu 26 Jan 13:39:53 GMT 2023
 # Program compiled on                                     cn1108.scarf.rl.ac.uk
 # Program compiled for                                                    local
 # Source code revision number                                       git:1ef701d
 &GLOBAL
   EXTENDED_FFT_LENGTHS  T
   PRINT_LEVEL  MEDIUM
   PROJECT_NAME dft_wfn
   RUN_TYPE  CELL_OPT
 &END GLOBAL
 &MOTION
   &CELL_OPT
     OPTIMIZER  BFGS
     MAX_ITER  1000
     STEP_START_VAL  6
     TYPE  DIRECT_CELL_OPT
     KEEP_SYMMETRY  T
   &END CELL_OPT
   &CONSTRAINT
     &FIXED_ATOMS
       LIST  1..40 76..116
     &END FIXED_ATOMS
   &END CONSTRAINT
   &PRINT
     &TRAJECTORY  ON
       FORMAT  XMOL
     &END TRAJECTORY
   &END PRINT
 &END MOTION
 &FORCE_EVAL
   METHOD  QS
   STRESS_TENSOR  ANALYTICAL
   &DFT
     BASIS_SET_FILE_NAME BASIS_MOLOPT
     POTENTIAL_FILE_NAME GTH_POTENTIALS
     &SCF
       MAX_SCF  100
       EPS_SCF     9.9999999999999995E-08
       SCF_GUESS  ATOMIC
       ADDED_MOS  100
       &SMEAR  T
         METHOD  FERMI_DIRAC
         ELECTRONIC_TEMPERATURE     2.9300000000000000E+02
       &END SMEAR
       &MIXING  T
         METHOD  BROYDEN_MIXING
         ALPHA     2.9999999999999999E-01
         NBUFFER  8
       &END MIXING
       &PRINT
         &RESTART  SILENT
           FILENAME RESTART_0
         &END RESTART
       &END PRINT
     &END SCF
     &MGRID
       CUTOFF     4.0000000000000000E+02
     &END MGRID
     &XC
       DENSITY_CUTOFF     1.0000000000000000E-10
       GRADIENT_CUTOFF     1.0000000000000000E-10
       TAU_CUTOFF     1.0000000000000000E-10
       &XC_FUNCTIONAL  NO_SHORTCUT
         &PADE  T
         &END PADE
       &END XC_FUNCTIONAL
     &END XC
     &POISSON
       PERIODIC  XYZ
     &END POISSON
     &KPOINTS
       SCHEME MONKHORST-PACK 2 2 1
       SYMMETRY  F
       FULL_GRID  T
       VERBOSE  T
       EPS_GEO     1.0000000000000000E-08
       PARALLEL_GROUP_SIZE  0
     &END KPOINTS
     &PRINT
       &E_DENSITY_CUBE  ON
         STRIDE  2 2 2
       &END E_DENSITY_CUBE
       &V_HARTREE_CUBE  SILENT
         STRIDE  2 2 2
       &END V_HARTREE_CUBE
       &HIRSHFELD  SILENT
         SHAPE_FUNCTION  DENSITY
       &END HIRSHFELD
     &END PRINT
   &END DFT
   &SUBSYS
     &CELL
       A     8.2739662258472180E+00    0.0000000000000000E+00    0.0000000000000000E+00
       B    -4.6048836019893162E-05    8.3033546467302060E+00    0.0000000000000000E+00
       C     7.9359171485423056E-04    2.0499670151393617E-04    3.4490503515732371E+01
       PERIODIC  XYZ
       MULTIPLE_UNIT_CELL  1 1 1
     &END CELL
     &COORD
Au    0.0000000000000000E+00    0.0000000000000000E+00    0.0000000000000000E+00
Au   -2.3024418009946581E-05    4.1516773233651030E+00    0.0000000000000000E+00
Au    2.0684800442527997E+00    2.0758386616825515E+00    0.0000000000000000E+00
Au    2.0684570198347898E+00    6.2275159850476545E+00    0.0000000000000000E+00
Au    4.1369831129236090E+00    0.0000000000000000E+00    0.0000000000000000E+00
Au    4.1369600885055995E+00    4.1516773233651030E+00    0.0000000000000000E+00
Au    6.2054631571764105E+00    2.0758386616825515E+00    0.0000000000000000E+00
Au    6.2054401327584001E+00    6.2275159850476545E+00    0.0000000000000000E+00
Au    3.6139153087855463E-05    2.0758509707476143E+00    2.0709886973732243E+00
Au    1.3114735077908885E-05    6.2275282941127177E+00    2.0709886973732243E+00
Au    2.0685392078238976E+00    1.2309065063097837E-05    2.0709886973732243E+00
Au    2.0685161834058876E+00    4.1516896324301662E+00    2.0709886973732243E+00
Au    4.1370192520766969E+00    2.0758509707476143E+00    2.0709886973732243E+00
Au    4.1369962276586874E+00    6.2275282941127177E+00    2.0709886973732243E+00
Au    6.2055223207475079E+00    1.2309065063097837E-05    2.0709886973732243E+00
Au    6.2054992963294975E+00    4.1516896324301662E+00    2.0709886973732243E+00
Au    9.5302724185657517E-05    2.4618130126195674E-05    4.1419773947464487E+00
Au    7.2278306175710925E-05    4.1517019414952285E+00    4.1419773947464487E+00
Au    2.0685753469769850E+00    2.0758632798126775E+00    4.1419773947464487E+00
Au    2.0685523225589750E+00    6.2275406031777809E+00    4.1419773947464487E+00
Au    4.1370784156477951E+00    2.4618130126195674E-05    4.1419773947464487E+00
Au    4.1370553912297847E+00    4.1517019414952285E+00    4.1419773947464487E+00
Au    6.2055584599005957E+00    2.0758632798126775E+00    4.1419773947464487E+00
Au    6.2055354354825853E+00    6.2275406031777809E+00    4.1419773947464487E+00
Au    1.3144187727351299E-04    2.0758755888777407E+00    6.2129660921196734E+00
Au    1.0841745926356642E-04    6.2275529122428441E+00    6.2129660921196734E+00
Au    2.0686345105480832E+00    3.6927195189293514E-05    6.2129660921196734E+00
Au    2.0686114861300733E+00    4.1517142505602918E+00    6.2129660921196734E+00
Au    4.1371145548008830E+00    2.0758755888777407E+00    6.2129660921196734E+00
Au    4.1370915303828726E+00    6.2275529122428441E+00    6.2129660921196734E+00
Au    6.2056176234716940E+00    3.6927195189293514E-05    6.2129660921196734E+00
Au    6.2055945990536836E+00    4.1517142505602918E+00    6.2129660921196734E+00
Au    1.9060544837131503E-04    4.9236260252391348E-05    8.2839547894928973E+00
Au    1.6758103036136846E-04    4.1517265596253550E+00    8.2839547894928973E+00
Au    2.0686706497011706E+00    2.0758878979428039E+00    8.2839547894928973E+00
Au    2.0686476252831612E+00    6.2275652213079074E+00    8.2839547894928973E+00
Au    4.1371737183719803E+00    4.9236260252391348E-05    8.2839547894928973E+00
Au    4.1371506939539699E+00    4.1517265596253550E+00    8.2839547894928973E+00
Au    6.2056537626247819E+00    2.0758878979428039E+00    8.2839547894928973E+00
Au    6.2056307382067715E+00    6.2275652213079074E+00    8.2839547894928973E+00
Au    2.7881761451867173E-04    2.0759357443345858E+00    1.0369651445848708E+01
Au    2.0106381146593763E-04    6.2275250515819174E+00    1.0345788206946072E+01
Au    2.0705597688523425E+00    4.2805078410240354E-03    1.0347220315271612E+01
Au    2.0705629764852369E+00    4.1476342687045520E+00    1.0347113317185419E+01
Au    4.1372350578259454E+00    2.0757638172494444E+00    1.0319177416317064E+01
Au    4.1371708739497430E+00    6.2270662937407995E+00    1.0365542884703537E+01
Au    6.2038711470835173E+00    4.2861344681299103E-03    1.0347250599501370E+01
Au    6.2038229981403630E+00    4.1476290713308916E+00    1.0347142432666459E+01
Au    2.9761545515224591E-04   -1.7583024211951539E-02    1.2432120119037275E+01
Au    2.7591902755444913E-04    4.1695673112503799E+00    1.2432231928660867E+01
Au    1.9845273744276519E+00    2.0758570685504911E+00    1.2452941552192655E+01
Au    2.0493575310358234E+00    6.2275980881947115E+00    1.2431728134389989E+01
Au    4.1372617955203754E+00   -9.0968810200527925E-02    1.2438891971463118E+01
Au    4.1372383118867084E+00    4.2416854016954604E+00    1.2440246089159407E+01
Au    6.2901615763061036E+00    2.0758575489785422E+00    1.2452805284642201E+01
Au    6.2250795664834833E+00    6.2275996340431705E+00    1.2431756158970600E+01
S    4.1370384313619786E+00    2.0818492054470328E+00    1.4089835416164670E+01
C    4.1345095683885447E+00    2.0893516665638265E+00    1.5857551986995237E+01
H    1.9817581564319133E+00    2.0971282813339940E+00    1.5994146886819331E+01
H    6.2874646767047428E+00    2.0970371612113459E+00    1.6004446987792690E+01
C    2.9211653738393375E+00    2.0824730569228667E+00    1.6555051200849576E+01
C    5.3457314619181737E+00    2.0825547129639821E+00    1.6557962649267253E+01
C    2.9187745715860354E+00    2.0675637815129049E+00    1.7932890055115170E+01
C    5.3433542051317193E+00    2.0676130519917666E+00    1.7935648741431709E+01
H    1.9769528565871313E+00    2.0528876052101928E+00    1.8486429931501380E+01
H    6.2826390634257816E+00    2.0527680114225304E+00    1.8496778221012502E+01
C    4.1300021332116659E+00    2.0611659771069073E+00    1.8632788912127523E+01
S    4.1319085461437881E+00    2.0695334206165104E+00    2.0399479570512487E+01
Au    7.9883985519238625E-05   -1.5840077886633077E-02    2.2057705563762919E+01
Au    5.4911275425025435E-05    4.1675860726986711E+00    2.2057823658149378E+01
Au    1.9809134421306782E+00    2.0761140237268974E+00    2.2035240343800218E+01
Au    2.0513586354944953E+00    6.2276001749544587E+00    2.2057602139717027E+01
Au    4.1371023815917569E+00   -9.3050370651094241E-02    2.2047833681457146E+01
Au    4.1370782602517098E+00    4.2461152145391763E+00    2.2049313783694515E+01
Au    6.2947925480803617E+00    2.0761147542945086E+00    2.2036584640606463E+01
Au    6.2059478163006974E+00    6.2276471273587903E+00    2.2064571331493021E+01
Au    5.4382269538511571E-04    2.0759821130587497E+00    2.4135560028866244E+01
Au    5.2079827737517204E-04    6.2276594364238527E+00    2.4135560028866244E+01
Au    2.0690468913661948E+00    1.4345137619844691E-04    2.4135560028866244E+01
Au    2.0690238669481849E+00    4.1518207747413012E+00    2.4135560028866244E+01
Au    4.1375269356189941E+00    2.0759821130587497E+00    2.4135560028866244E+01
Au    4.1375039112009846E+00    6.2276594364238527E+00    2.4135560028866244E+01
Au    6.2060300042898051E+00    1.4345137619844968E-04    2.4135560028866244E+01
Au    6.2060069798717947E+00    4.1518207747413012E+00    2.4135560028866244E+01
Au    6.0298626648291247E-04    1.5576044126154934E-04    2.6206548726239472E+01
Au    5.7996184847297226E-04    4.1518330838063644E+00    2.6206548726239472E+01
Au    2.0690830305192822E+00    2.0759944221238129E+00    2.6206548726239472E+01
Au    2.0690600061012727E+00    6.2276717454889159E+00    2.6206548726239472E+01
Au    4.1375860991900923E+00    1.5576044126154671E-04    2.6206548726239472E+01
Au    4.1375630747720820E+00    4.1518330838063644E+00    2.6206548726239472E+01
Au    6.2060661434428939E+00    2.0759944221238129E+00    2.6206548726239472E+01
Au    6.2060431190248835E+00    6.2276717454889159E+00    2.6206548726239472E+01
Au    6.3912541957077140E-04    2.0760067311888761E+00    2.8277537423612699E+01
Au    6.1610100156082566E-04    6.2276840545539791E+00    2.8277537423612699E+01
Au    2.0691421940903805E+00    1.6806950632463613E-04    2.8277537423612699E+01
Au    2.0691191696723705E+00    4.1518453928714276E+00    2.8277537423612699E+01
Au    4.1376222383431793E+00    2.0760067311888761E+00    2.8277537423612699E+01
Au    4.1375992139251698E+00    6.2276840545539791E+00    2.8277537423612699E+01
Au    6.2061253070139912E+00    1.6806950632464635E-04    2.8277537423612699E+01
Au    6.2061022825959808E+00    4.1518453928714276E+00    2.8277537423612699E+01
Au    6.9828899066857325E-04    1.8037857138774254E-04    3.0348526120985923E+01
Au    6.7526457265862502E-04    4.1518577019364900E+00    3.0348526120985923E+01
Au    2.0691783332434683E+00    2.0760190402539394E+00    3.0348526120985923E+01
Au    2.0691553088254584E+00    6.2276963636190423E+00    3.0348526120985923E+01
Au    4.1376814019142776E+00    1.8037857138774680E-04    3.0348526120985923E+01
Au    4.1376583774962681E+00    4.1518577019364900E+00    3.0348526120985923E+01
Au    6.2061614461670791E+00    2.0760190402539394E+00    3.0348526120985923E+01
Au    6.2061384217490687E+00    6.2276963636190423E+00    3.0348526120985923E+01
Au    7.3442814375642459E-04    2.0760313493190021E+00    3.2419514818359147E+01
Au    7.1140372574647322E-04    6.2277086726841056E+00    3.2419514818359147E+01
Au    2.0692374968145661E+00    1.9268763645084459E-04    3.2419514818359147E+01
Au    2.0692144723965562E+00    4.1518700110015541E+00    3.2419514818359147E+01
Au    4.1377175410673654E+00    2.0760313493190021E+00    3.2419514818359147E+01
Au    4.1376945166493559E+00    6.2277086726841056E+00    3.2419514818359147E+01
Au    6.2062206097381765E+00    1.9268763645082643E-04    3.2419514818359147E+01
Au    6.2061975853201661E+00    4.1518700110015541E+00    3.2419514818359147E+01
     &END COORD
     &KIND Au
       BASIS_SET SZV-MOLOPT-SR-GTH
       POTENTIAL GTH-PADE-q11
       &POTENTIAL
 1 0 10
  0.5900000000000000E+00 1  0.1160442790000000E+02
 3
  0.5211797500000001E+00 2  0.2538613590000000E+01 -0.1046136640000000E+01
  0.2701113200000000E+01
  0.6306130599999999E+00 2  0.3948527000000000E+00 -0.8695921300000000E+00
  0.2057830560000000E+01
  0.4407064300000000E+00 2 -0.4719069660000000E+01  0.7277708100000000E+00
 -0.1650429070000000E+01
         # Potential name:  GTH-PADE-Q11  for symbol:  AU
         # Potential read from the potential filename: GTH_POTENTIALS
       &END POTENTIAL
     &END KIND
     &KIND C
       BASIS_SET DZVP-MOLOPT-SR-GTH
       ELEMENT C
       POTENTIAL GTH-PADE-q4
       &POTENTIAL
 2 2
  0.3488304500000000E+00 2 -0.8513771100000000E+01  0.1228432030000000E+01
 2
  0.3045532100000000E+00 1  0.9522841789999999E+01
  0.2326773000000000E+00 0
         # Potential name:  GTH-PADE-Q4  for symbol:  C
         # Potential read from the potential filename: GTH_POTENTIALS
       &END POTENTIAL
     &END KIND
     &KIND S
       BASIS_SET DZVP-MOLOPT-SR-GTH
       ELEMENT S
       POTENTIAL GTH-PADE-q6
       &POTENTIAL
 2 4
  0.4200000000000000E+00 1 -0.6554491840000000E+01
 2
  0.3617566500000000E+00 2  0.7905302500000000E+01 -0.1731881300000000E+01
  0.4471698300000000E+01
  0.4052850200000000E+00 1  0.3866579000000000E+01
         # Potential name:  GTH-PADE-Q6  for symbol:  S
         # Potential read from the potential filename: GTH_POTENTIALS
       &END POTENTIAL
     &END KIND
     &KIND H
       BASIS_SET DZVP-MOLOPT-SR-GTH
       ELEMENT H
       POTENTIAL GTH-PADE-q1
       &POTENTIAL
 1
  0.2000000000000000E+00 2 -0.4180236800000000E+01  0.7250748200000000E+00
 0
         # Potential name:  GTH-PADE-Q1  for symbol:  H
         # Potential read from the potential filename: GTH_POTENTIALS
       &END POTENTIAL
     &END KIND
     &TOPOLOGY
       COORD_FILE_NAME em.xyz
       COORD_FILE_FORMAT  XYZ
       NUMBER_OF_ATOMS  116
       MULTIPLE_UNIT_CELL  1 1 1
     &END TOPOLOGY
   &END SUBSYS
 &END FORCE_EVAL
