 # Version information for this restart file 
 # current date 2023-02-22 11:14:53.386
 # current working dir /work4/scd/scarf1157/work/testing/cp2k-smeagol/bdt/cp2k/hollow-site/transport-cp2k/5-4/geometry-ordered/3x3-4/sz/bulk_layers-4/geo_opt/dzvp/Au-S-2.65_dft_cell-opt
 # Program compiled at                              Thu 26 Jan 13:39:53 GMT 2023
 # Program compiled on                                     cn1108.scarf.rl.ac.uk
 # Program compiled for                                                    local
 # Source code revision number                                       git:1ef701d
 &GLOBAL
   EXTENDED_FFT_LENGTHS  T
   PRINT_LEVEL  MEDIUM
   PROJECT_NAME dft_wfn
   RUN_TYPE  CELL_OPT
 &END GLOBAL
 &MOTION
   &CELL_OPT
     OPTIMIZER  BFGS
     MAX_ITER  1000
     STEP_START_VAL  1
     TYPE  DIRECT_CELL_OPT
     KEEP_SYMMETRY  T
   &END CELL_OPT
   &CONSTRAINT
     &FIXED_ATOMS
       LIST  1..40 76..116
     &END FIXED_ATOMS
   &END CONSTRAINT
   &PRINT
     &TRAJECTORY  ON
       FORMAT  XMOL
     &END TRAJECTORY
   &END PRINT
 &END MOTION
 &FORCE_EVAL
   METHOD  QS
   STRESS_TENSOR  ANALYTICAL
   &DFT
     BASIS_SET_FILE_NAME BASIS_MOLOPT
     POTENTIAL_FILE_NAME GTH_POTENTIALS
     &SCF
       MAX_SCF  100
       EPS_SCF     9.9999999999999995E-08
       SCF_GUESS  ATOMIC
       ADDED_MOS  100
       &SMEAR  T
         METHOD  FERMI_DIRAC
         ELECTRONIC_TEMPERATURE     2.9300000000000000E+02
       &END SMEAR
       &MIXING  T
         METHOD  BROYDEN_MIXING
         ALPHA     2.9999999999999999E-01
         NBUFFER  8
       &END MIXING
       &PRINT
         &RESTART  SILENT
           FILENAME RESTART_0
         &END RESTART
       &END PRINT
     &END SCF
     &MGRID
       CUTOFF     4.0000000000000000E+02
     &END MGRID
     &XC
       DENSITY_CUTOFF     1.0000000000000000E-10
       GRADIENT_CUTOFF     1.0000000000000000E-10
       TAU_CUTOFF     1.0000000000000000E-10
       &XC_FUNCTIONAL  NO_SHORTCUT
         &PADE  T
         &END PADE
       &END XC_FUNCTIONAL
     &END XC
     &POISSON
       PERIODIC  XYZ
     &END POISSON
     &KPOINTS
       SCHEME MONKHORST-PACK 2 2 1
       SYMMETRY  F
       FULL_GRID  T
       VERBOSE  T
       EPS_GEO     1.0000000000000000E-08
       PARALLEL_GROUP_SIZE  0
     &END KPOINTS
     &PRINT
       &E_DENSITY_CUBE  ON
         STRIDE  2 2 2
       &END E_DENSITY_CUBE
       &V_HARTREE_CUBE  SILENT
         STRIDE  2 2 2
       &END V_HARTREE_CUBE
       &HIRSHFELD  SILENT
         SHAPE_FUNCTION  DENSITY
       &END HIRSHFELD
     &END PRINT
   &END DFT
   &SUBSYS
     &CELL
       A     8.3004443233930800E+00    0.0000000000000000E+00    0.0000000000000000E+00
       B     2.7641616751454175E-06    8.2953082964382681E+00    0.0000000000000000E+00
       C     1.6449222600435265E-04    1.1476245583269229E-06    3.4522272074711765E+01
       PERIODIC  XYZ
       MULTIPLE_UNIT_CELL  1 1 1
     &END CELL
     &COORD
Au    0.0000000000000000E+00    0.0000000000000000E+00    0.0000000000000000E+00
Au    1.3820808375727087E-06    4.1476541482191340E+00    0.0000000000000000E+00
Au    2.0751117718886891E+00    2.0738270741095670E+00    0.0000000000000000E+00
Au    2.0751131539695264E+00    6.2214812223287019E+00    0.0000000000000000E+00
Au    4.1502221616965400E+00    0.0000000000000000E+00    0.0000000000000000E+00
Au    4.1502235437773782E+00    4.1476541482191340E+00    0.0000000000000000E+00
Au    6.2253339335852305E+00    2.0738270741095670E+00    0.0000000000000000E+00
Au    6.2253353156660669E+00    6.2214812223287019E+00    0.0000000000000000E+00
Au    1.0568006717796407E-05    2.0738271430188968E+00    2.0728962464047473E+00
Au    1.1950087555369116E-05    6.2214812912380317E+00    2.0728962464047473E+00
Au    2.0751209578145691E+00    6.8909330014242586E-08    2.0728962464047473E+00
Au    2.0751223398954068E+00    4.1476542171284638E+00    2.0728962464047473E+00
Au    4.1502327297032577E+00    2.0738271430188968E+00    2.0728962464047473E+00
Au    4.1502341117840960E+00    6.2214812912380317E+00    2.0728962464047473E+00
Au    6.2253431195111109E+00    6.8909330014242586E-08    2.0728962464047473E+00
Au    6.2253445015919482E+00    4.1476542171284638E+00    2.0728962464047473E+00
Au    1.9753932598020106E-05    1.3781866002848517E-07    4.1457924928094947E+00
Au    2.1136013435592813E-05    4.1476542860377936E+00    4.1457924928094947E+00
Au    2.0751315258212872E+00    2.0738272119282266E+00    4.1457924928094947E+00
Au    2.0751329079021246E+00    6.2214813601473615E+00    4.1457924928094947E+00
Au    4.1502419156291381E+00    1.3781866002848517E-07    4.1457924928094947E+00
Au    4.1502432977099764E+00    4.1476542860377936E+00    4.1457924928094947E+00
Au    6.2253536875178277E+00    2.0738272119282266E+00    4.1457924928094947E+00
Au    6.2253550695986650E+00    6.2214813601473615E+00    4.1457924928094947E+00
Au    3.0321939315816514E-05    2.0738272808375569E+00    6.2186887392142420E+00
Au    3.1704020153389225E-05    6.2214814290566913E+00    6.2186887392142420E+00
Au    2.0751407117471672E+00    2.0672799004272780E-07    6.2186887392142420E+00
Au    2.0751420938280045E+00    4.1476543549471243E+00    6.2186887392142420E+00
Au    4.1502524836358559E+00    2.0738272808375569E+00    6.2186887392142420E+00
Au    4.1502538657166932E+00    6.2214814290566913E+00    6.2186887392142420E+00
Au    6.2253628734437081E+00    2.0672799004272780E-07    6.2186887392142420E+00
Au    6.2253642555245454E+00    4.1476543549471243E+00    6.2186887392142420E+00
Au    3.9507865196040212E-05    2.7563732005697034E-07    8.2915849856189894E+00
Au    4.0889946033612919E-05    4.1476544238564532E+00    8.2915849856189894E+00
Au    2.0751512797538849E+00    2.0738273497468871E+00    8.2915849856189894E+00
Au    2.0751526618347227E+00    6.2214814979660211E+00    8.2915849856189894E+00
Au    4.1502616695617363E+00    2.7563732005697034E-07    8.2915849856189894E+00
Au    4.1502630516425745E+00    4.1476544238564532E+00    8.2915849856189894E+00
Au    6.2253734414504267E+00    2.0738273497468871E+00    8.2915849856189894E+00
Au    6.2253748235312631E+00    6.2214814979660211E+00    8.2915849856189894E+00
Au    4.5613172519417350E-05    2.0738278067019702E+00    1.0366171773793193E+01
Au    4.9864433122216887E-05    6.2214763336966294E+00    1.0363714103641833E+01
Au    2.0751082835664181E+00    5.4728907895419694E-05    1.0363662144914535E+01
Au    2.0751066988190128E+00    4.1476081004933620E+00    1.0363653749590322E+01
Au    4.1502705423664530E+00    2.0738195555667231E+00    1.0359719876744503E+01
Au    4.1502720880843205E+00    6.2214682511312356E+00    1.0366054723687055E+01
Au    6.2254374310435105E+00    5.4887693347234876E-05    1.0363659871401307E+01
Au    6.2254418514889567E+00    4.1476079579630358E+00    1.0363651311117856E+01
Au    6.1543439364331948E-05   -4.0190490797666523E-04    1.2437685431708688E+01
Au    6.3014997200352258E-05    4.1480647558064048E+00    1.2437692829380428E+01
Au    2.0676932863267532E+00    2.0738376848988791E+00    1.2438807986494291E+01
Au    2.0747109842528970E+00    6.2214806920254606E+00    1.2437665502477914E+01
Au    4.1502808911411835E+00   -7.8560386754949144E-03    1.2438033973952846E+01
Au    4.1502824913495120E+00    4.1554188187098866E+00    1.2438104634436117E+01
Au    6.2328358379897999E+00    2.0738379288254598E+00    1.2438839598916299E+01
Au    6.2258570451561512E+00    6.2214807957584890E+00    1.2437666460833631E+01
S    4.1503794217707304E+00    2.0741008852312026E+00    1.4090230834549747E+01
C    4.1501113713295643E+00    2.0790276979478097E+00    1.5852678748668087E+01
H    2.0281232389570714E+00    2.1037421199210655E+00    1.6020427421293409E+01
H    6.2718003020893311E+00    2.1037391498348308E+00    1.6026637947434271E+01
C    2.9640112695621244E+00    2.0824476759254669E+00    1.6576434361084367E+01
C    5.3342426463409156E+00    2.0824624603884603E+00    1.6578361413946041E+01
C    2.9554637296301292E+00    2.0631989718329442E+00    1.7944787367151594E+01
C    5.3255039583990857E+00    2.0632139488409242E+00    1.7946312233454631E+01
H    2.0176108538490336E+00    2.0419150885706014E+00    1.8495787331154808E+01
H    6.2616508137141578E+00    2.0419114575135193E+00    1.8501997647204039E+01
C    4.1397761502007970E+00    2.0666848413319565E+00    1.8670066103844778E+01
S    4.1498049979859317E+00    2.0735173851409061E+00    2.0432870919373766E+01
Au    1.0011815153470935E-04   -4.0986943678018167E-04    2.2084579630209706E+01
Au    1.0153988296508465E-04    4.1480568607864488E+00    2.2084587702512845E+01
Au    2.0678182302026098E+00    2.0738206172779114E+00    2.2083383095867791E+01
Au    2.0747532791228385E+00    6.2214793086715403E+00    2.2084606149488593E+01
Au    4.1503314565228315E+00   -7.7703591578046610E-03    2.2084165525618747E+01
Au    4.1503330469432820E+00    4.1555348344653167E+00    2.2084248820557676E+01
Au    6.2329921756127780E+00    2.0738208819177046E+00    2.2083525570625216E+01
Au    6.2254405460942772E+00    6.2214819564972794E+00    2.2084894596283281E+01
Au    1.1579843492808873E-04    2.0738278771874752E+00    2.4157790842688030E+01
Au    1.1718051576566145E-04    6.2214820254066101E+00    2.4157790842688030E+01
Au    2.0752261882427794E+00    8.0307790825570993E-07    2.4157790842688030E+01
Au    2.0752275703236172E+00    4.1476549512970422E+00    2.4157790842688030E+01
Au    4.1503379601314681E+00    2.0738278771874752E+00    2.4157790842688030E+01
Au    4.1503393422123063E+00    6.2214820254066101E+00    2.4157790842688030E+01
Au    6.2254483499393212E+00    8.0307790825570993E-07    2.4157790842688030E+01
Au    6.2254497320201585E+00    4.1476549512970422E+00    2.4157790842688030E+01
Au    1.2498436080831245E-04    8.7198723826995263E-07    2.6230687089092779E+01
Au    1.2636644164588516E-04    4.1476550202063720E+00    2.6230687089092779E+01
Au    2.0752367562494971E+00    2.0738279460968050E+00    2.6230687089092779E+01
Au    2.0752381383303349E+00    6.2214820943159399E+00    2.6230687089092779E+01
Au    4.1503471460573484E+00    8.7198723826995263E-07    2.6230687089092779E+01
Au    4.1503485281381867E+00    4.1476550202063720E+00    2.6230687089092779E+01
Au    6.2254589179460389E+00    2.0738279460968050E+00    2.6230687089092779E+01
Au    6.2254603000268762E+00    6.2214820943159399E+00    2.6230687089092779E+01
Au    1.3555236752610888E-04    2.0738280150061352E+00    2.8303583335497528E+01
Au    1.3693444836368159E-04    6.2214821632252706E+00    2.8303583335497528E+01
Au    2.0752459421753775E+00    9.4089656828419534E-07    2.8303583335497528E+01
Au    2.0752473242562148E+00    4.1476550891157018E+00    2.8303583335497528E+01
Au    4.1503577140640662E+00    2.0738280150061352E+00    2.8303583335497528E+01
Au    4.1503590961449044E+00    6.2214821632252706E+00    2.8303583335497528E+01
Au    6.2254681038719184E+00    9.4089656828419534E-07    2.8303583335497528E+01
Au    6.2254694859527557E+00    4.1476550891157018E+00    2.8303583335497528E+01
Au    1.4473829340633256E-04    1.0098058982984377E-06    3.0376479581902274E+01
Au    1.4612037424390525E-04    4.1476551580250325E+00    3.0376479581902274E+01
Au    2.0752565101820952E+00    2.0738280839154650E+00    3.0376479581902274E+01
Au    2.0752578922629330E+00    6.2214822321345995E+00    3.0376479581902274E+01
Au    4.1503668999899466E+00    1.0098058982984377E-06    3.0376479581902274E+01
Au    4.1503682820707848E+00    4.1476551580250325E+00    3.0376479581902274E+01
Au    6.2254786718786361E+00    2.0738280839154650E+00    3.0376479581902274E+01
Au    6.2254800539594735E+00    6.2214822321345995E+00    3.0376479581902274E+01
Au    1.5530630012412894E-04    2.0738281528247953E+00    3.2449375828307019E+01
Au    1.5668838096170165E-04    6.2214823010439293E+00    3.2449375828307019E+01
Au    2.0752656961079756E+00    1.0787152283126804E-06    3.2449375828307019E+01
Au    2.0752670781888130E+00    4.1476552269343623E+00    3.2449375828307019E+01
Au    4.1503774679966643E+00    2.0738281528247953E+00    3.2449375828307019E+01
Au    4.1503788500775016E+00    6.2214823010439293E+00    3.2449375828307019E+01
Au    6.2254878578045174E+00    1.0787152283126804E-06    3.2449375828307019E+01
Au    6.2254892398853547E+00    4.1476552269343623E+00    3.2449375828307019E+01
     &END COORD
     &KIND Au
       BASIS_SET SZV-MOLOPT-SR-GTH
       POTENTIAL GTH-PADE-q11
       &POTENTIAL
 1 0 10
  0.5900000000000000E+00 1  0.1160442790000000E+02
 3
  0.5211797500000001E+00 2  0.2538613590000000E+01 -0.1046136640000000E+01
  0.2701113200000000E+01
  0.6306130599999999E+00 2  0.3948527000000000E+00 -0.8695921300000000E+00
  0.2057830560000000E+01
  0.4407064300000000E+00 2 -0.4719069660000000E+01  0.7277708100000000E+00
 -0.1650429070000000E+01
         # Potential name:  GTH-PADE-Q11  for symbol:  AU
         # Potential read from the potential filename: GTH_POTENTIALS
       &END POTENTIAL
     &END KIND
     &KIND C
       BASIS_SET DZVP-MOLOPT-SR-GTH
       ELEMENT C
       POTENTIAL GTH-PADE-q4
       &POTENTIAL
 2 2
  0.3488304500000000E+00 2 -0.8513771100000000E+01  0.1228432030000000E+01
 2
  0.3045532100000000E+00 1  0.9522841789999999E+01
  0.2326773000000000E+00 0
         # Potential name:  GTH-PADE-Q4  for symbol:  C
         # Potential read from the potential filename: GTH_POTENTIALS
       &END POTENTIAL
     &END KIND
     &KIND S
       BASIS_SET DZVP-MOLOPT-SR-GTH
       ELEMENT S
       POTENTIAL GTH-PADE-q6
       &POTENTIAL
 2 4
  0.4200000000000000E+00 1 -0.6554491840000000E+01
 2
  0.3617566500000000E+00 2  0.7905302500000000E+01 -0.1731881300000000E+01
  0.4471698300000000E+01
  0.4052850200000000E+00 1  0.3866579000000000E+01
         # Potential name:  GTH-PADE-Q6  for symbol:  S
         # Potential read from the potential filename: GTH_POTENTIALS
       &END POTENTIAL
     &END KIND
     &KIND H
       BASIS_SET DZVP-MOLOPT-SR-GTH
       ELEMENT H
       POTENTIAL GTH-PADE-q1
       &POTENTIAL
 1
  0.2000000000000000E+00 2 -0.4180236800000000E+01  0.7250748200000000E+00
 0
         # Potential name:  GTH-PADE-Q1  for symbol:  H
         # Potential read from the potential filename: GTH_POTENTIALS
       &END POTENTIAL
     &END KIND
     &TOPOLOGY
       COORD_FILE_NAME em.xyz
       COORD_FILE_FORMAT  XYZ
       NUMBER_OF_ATOMS  116
       MULTIPLE_UNIT_CELL  1 1 1
     &END TOPOLOGY
   &END SUBSYS
 &END FORCE_EVAL
