 # Version information for this restart file 
 # current date 2023-02-22 11:16:24.999
 # current working dir /work4/scd/scarf1157/work/testing/cp2k-smeagol/bdt/cp2k/hollow-site/transport-cp2k/5-4/geometry-ordered/3x3-4/sz/bulk_layers-4/geo_opt/dzvp/Au-S-2.65_dft_cell-opt
 # Program compiled at                              Thu 26 Jan 13:39:53 GMT 2023
 # Program compiled on                                     cn1108.scarf.rl.ac.uk
 # Program compiled for                                                    local
 # Source code revision number                                       git:1ef701d
 &GLOBAL
   EXTENDED_FFT_LENGTHS  T
   PRINT_LEVEL  MEDIUM
   PROJECT_NAME dft_wfn
   RUN_TYPE  CELL_OPT
 &END GLOBAL
 &MOTION
   &CELL_OPT
     OPTIMIZER  BFGS
     MAX_ITER  1000
     STEP_START_VAL  3
     TYPE  DIRECT_CELL_OPT
     KEEP_SYMMETRY  T
   &END CELL_OPT
   &CONSTRAINT
     &FIXED_ATOMS
       LIST  1..40 76..116
     &END FIXED_ATOMS
   &END CONSTRAINT
   &PRINT
     &TRAJECTORY  ON
       FORMAT  XMOL
     &END TRAJECTORY
   &END PRINT
 &END MOTION
 &FORCE_EVAL
   METHOD  QS
   STRESS_TENSOR  ANALYTICAL
   &DFT
     BASIS_SET_FILE_NAME BASIS_MOLOPT
     POTENTIAL_FILE_NAME GTH_POTENTIALS
     &SCF
       MAX_SCF  100
       EPS_SCF     9.9999999999999995E-08
       SCF_GUESS  ATOMIC
       ADDED_MOS  100
       &SMEAR  T
         METHOD  FERMI_DIRAC
         ELECTRONIC_TEMPERATURE     2.9300000000000000E+02
       &END SMEAR
       &MIXING  T
         METHOD  BROYDEN_MIXING
         ALPHA     2.9999999999999999E-01
         NBUFFER  8
       &END MIXING
       &PRINT
         &RESTART  SILENT
           FILENAME RESTART_0
         &END RESTART
       &END PRINT
     &END SCF
     &MGRID
       CUTOFF     4.0000000000000000E+02
     &END MGRID
     &XC
       DENSITY_CUTOFF     1.0000000000000000E-10
       GRADIENT_CUTOFF     1.0000000000000000E-10
       TAU_CUTOFF     1.0000000000000000E-10
       &XC_FUNCTIONAL  NO_SHORTCUT
         &PADE  T
         &END PADE
       &END XC_FUNCTIONAL
     &END XC
     &POISSON
       PERIODIC  XYZ
     &END POISSON
     &KPOINTS
       SCHEME MONKHORST-PACK 2 2 1
       SYMMETRY  F
       FULL_GRID  T
       VERBOSE  T
       EPS_GEO     1.0000000000000000E-08
       PARALLEL_GROUP_SIZE  0
     &END KPOINTS
     &PRINT
       &E_DENSITY_CUBE  ON
         STRIDE  2 2 2
       &END E_DENSITY_CUBE
       &V_HARTREE_CUBE  SILENT
         STRIDE  2 2 2
       &END V_HARTREE_CUBE
       &HIRSHFELD  SILENT
         SHAPE_FUNCTION  DENSITY
       &END HIRSHFELD
     &END PRINT
   &END DFT
   &SUBSYS
     &CELL
       A     8.2975508465497079E+00    0.0000000000000000E+00    0.0000000000000000E+00
       B    -1.3290289876052711E-05    8.2951034769211613E+00    0.0000000000000000E+00
       C     5.3063365030479404E-04    4.5361156334570284E-05    3.4509755568893617E+01
       PERIODIC  XYZ
       MULTIPLE_UNIT_CELL  1 1 1
     &END CELL
     &COORD
Au    0.0000000000000000E+00    0.0000000000000000E+00    0.0000000000000000E+00
Au   -6.6451449380263557E-06    4.1475517384605807E+00    0.0000000000000000E+00
Au    2.0743843890649578E+00    2.0737758692302903E+00    0.0000000000000000E+00
Au    2.0743777439200199E+00    6.2213276076908715E+00    0.0000000000000000E+00
Au    4.1487754232748539E+00    0.0000000000000000E+00    0.0000000000000000E+00
Au    4.1487687781299156E+00    4.1475517384605807E+00    0.0000000000000000E+00
Au    6.2231598123398122E+00    2.0737758692302903E+00    0.0000000000000000E+00
Au    6.2231531671948748E+00    6.2213276076908715E+00    0.0000000000000000E+00
Au    2.8539423738895469E-05    2.0737785929493575E+00    2.0721446904853571E+00
Au    2.1894278800869111E-05    6.2213303314099395E+00    2.0721446904853571E+00
Au    2.0744195736336346E+00    2.7237190673607980E-06    2.0721446904853571E+00
Au    2.0744129284886967E+00    4.1475544621796478E+00    2.0721446904853571E+00
Au    4.1488039626985920E+00    2.0737785929493575E+00    2.0721446904853571E+00
Au    4.1487973175536546E+00    6.2213303314099395E+00    2.0721446904853571E+00
Au    6.2231949969084903E+00    2.7237190673607980E-06    2.0721446904853571E+00
Au    6.2231883517635520E+00    4.1475544621796478E+00    2.0721446904853571E+00
Au    6.3723992415817290E-05    5.4474381347215960E-06    4.1442893809707142E+00
Au    5.7078847477790938E-05    4.1475571858987150E+00    4.1442893809707142E+00
Au    2.0744481130573735E+00    2.0737813166684251E+00    4.1442893809707142E+00
Au    2.0744414679124357E+00    6.2213330551290067E+00    4.1442893809707142E+00
Au    4.1488391472672692E+00    5.4474381347215960E-06    4.1442893809707142E+00
Au    4.1488325021223309E+00    4.1475571858987150E+00    4.1442893809707142E+00
Au    6.2232235363322284E+00    2.0737813166684251E+00    4.1442893809707142E+00
Au    6.2232168911872900E+00    6.2213330551290067E+00    4.1442893809707142E+00
Au    9.2263416154712776E-05    2.0737840403874923E+00    6.2164340714560726E+00
Au    8.5618271216686417E-05    6.2213357788480739E+00    6.2164340714560726E+00
Au    2.0744832976260508E+00    8.1711572020823962E-06    6.2164340714560726E+00
Au    2.0744766524811125E+00    4.1475599096177831E+00    6.2164340714560726E+00
Au    4.1488676866910081E+00    2.0737840403874923E+00    6.2164340714560726E+00
Au    4.1488610415460698E+00    6.2213357788480739E+00    6.2164340714560726E+00
Au    6.2232587209009056E+00    8.1711572020823962E-06    6.2164340714560726E+00
Au    6.2232520757559673E+00    4.1475599096177831E+00    6.2164340714560726E+00
Au    1.2744798483163458E-04    1.0894876269443192E-05    8.2885787619414284E+00
Au    1.2080283989360823E-04    4.1475626333368503E+00    8.2885787619414284E+00
Au    2.0745118370497893E+00    2.0737867641065595E+00    8.2885787619414284E+00
Au    2.0745051919048514E+00    6.2213385025671410E+00    8.2885787619414284E+00
Au    4.1489028712596854E+00    1.0894876269443192E-05    8.2885787619414284E+00
Au    4.1488962261147471E+00    4.1475626333368503E+00    8.2885787619414284E+00
Au    6.2232872603246436E+00    2.0737867641065595E+00    8.2885787619414284E+00
Au    6.2232806151797062E+00    6.2213385025671410E+00    8.2885787619414284E+00
Au    1.6046292400542970E-04    2.0737958445756459E+00    1.0371252427460981E+01
Au    1.4606923659853829E-04    6.2213083165323990E+00    1.0355653606387611E+01
Au    2.0745466201413012E+00    9.4263488298684589E-04    1.0355395111358281E+01
Au    2.0745317173307098E+00    4.1466973875410664E+00    1.0355334058857949E+01
Au    4.1489400315649743E+00    2.0737273989519198E+00    1.0332496017080274E+01
Au    4.1489156747533675E+00    6.2211992100149214E+00    1.0370159035372135E+01
Au    6.2233204279898713E+00    9.4814705509903069E-04    1.0355402823994540E+01
Au    6.2233225040669318E+00    4.1466920120613704E+00    1.0355341013272280E+01
Au    1.9739620284440495E-04   -4.7127541419699978E-03    1.2434741524115591E+01
Au    1.9121606202627620E-04    4.1523587494216425E+00    1.2434800785290669E+01
Au    2.0255533235360779E+00    2.0738336468524312E+00    1.2443606413698587E+01
Au    2.0692904610740159E+00    6.2213411540092833E+00    1.2434628179640926E+01
Au    4.1489585927732291E+00   -5.2093840500801347E-02    1.2437399255945332E+01
Au    4.1489527004304181E+00    4.1990414982628499E+00    1.2437957787947216E+01
Au    6.2723782330860089E+00    2.0738345451231672E+00    1.2443610921695583E+01
Au    6.2286188247520897E+00    6.2213416476966392E+00    1.2434636667597545E+01
S    4.1490494018072566E+00    2.0761061303672226E+00    1.4101255767476502E+01
C    4.1460256722339404E+00    2.0846833511033593E+00    1.5859117132570285E+01
H    2.0063548025239215E+00    2.1002695282835830E+00    1.6009115488995075E+01
H    6.2910956513542944E+00    2.1002439659952836E+00    1.6016876314225655E+01
C    2.9430816668762039E+00    2.0796485779305072E+00    1.6556345812246480E+01
C    5.3475273149796854E+00    2.0796832803261731E+00    1.6560504610596428E+01
C    2.9398773146163295E+00    2.0659724462432019E+00    1.7949793978777542E+01
C    5.3445820568567060E+00    2.0659719211230181E+00    1.7953416501209187E+01
H    1.9957430863684527E+00    2.0453675445797379E+00    1.8493390100976139E+01
H    6.2808892477627207E+00    2.0453416957045762E+00    1.8500920742178042E+01
C    4.1419575718137551E+00    2.0613022832916790E+00    1.8651670401240651E+01
S    4.1460802343747121E+00    2.0712278481656017E+00    2.0408397219252969E+01
Au    2.8462577079078590E-04   -4.3808070682749408E-03    2.2074884184394509E+01
Au    2.7768479469967005E-04    4.1519197246455484E+00    2.2074947371291465E+01
Au    2.0250846204044342E+00    2.0737934792771680E+00    2.2065357013277552E+01
Au    2.0697894191288406E+00    6.2213352250062330E+00    2.2074986837368794E+01
Au    4.1491424888538004E+00   -5.2293999888398418E-02    2.2071276685042168E+01
Au    4.1491370242303320E+00    4.2006176671806630E+00    2.2071919892091767E+01
Au    6.2738261534747135E+00    2.0737947983938709E+00    2.2066113198842732E+01
Au    6.2234926288679322E+00    6.2213566265328017E+00    2.2076887425981472E+01
Au    3.6800109679623814E-04    2.0738076117912883E+00    2.4149032116466831E+01
Au    3.6135595185821340E-04    6.2213593502518689E+00    2.4149032116466831E+01
Au    2.0747590353066920E+00    3.1742560997765971E-05    2.4149032116466831E+01
Au    2.0747523901617537E+00    4.1475834810215790E+00    2.4149032116466831E+01
Au    4.1491434243716503E+00    2.0738076117912883E+00    2.4149032116466831E+01
Au    4.1491367792267120E+00    6.2213593502518689E+00    2.4149032116466831E+01
Au    6.2235344585815469E+00    3.1742560997767435E-05    2.4149032116466831E+01
Au    6.2235278134366085E+00    4.1475834810215790E+00    2.4149032116466831E+01
Au    4.0318566547315745E-04    3.4466280065128639E-05    2.6221176806952190E+01
Au    3.9654052053513525E-04    4.1475862047406462E+00    2.6221176806952190E+01
Au    2.0747875747304310E+00    2.0738103355103554E+00    2.6221176806952190E+01
Au    2.0747809295854931E+00    6.2213620739709370E+00    2.6221176806952190E+01
Au    4.1491786089403266E+00    3.4466280065128164E-05    2.6221176806952190E+01
Au    4.1491719637953892E+00    4.1475862047406462E+00    2.6221176806952190E+01
Au    6.2235629980052858E+00    2.0738103355103554E+00    2.6221176806952190E+01
Au    6.2235563528603475E+00    6.2213620739709370E+00    2.6221176806952190E+01
Au    4.3172508921205494E-04    2.0738130592294231E+00    2.8293321497437550E+01
Au    4.2507994427402879E-04    6.2213647976900033E+00    2.8293321497437550E+01
Au    2.0748227592991078E+00    3.7189999132484239E-05    2.8293321497437550E+01
Au    2.0748161141541699E+00    4.1475889284597134E+00    2.8293321497437550E+01
Au    4.1492071483640656E+00    2.0738130592294231E+00    2.8293321497437550E+01
Au    4.1492005032191273E+00    6.2213647976900033E+00    2.8293321497437550E+01
Au    6.2235981825739621E+00    3.7189999132490290E-05    2.8293321497437550E+01
Au    6.2235915374290238E+00    4.1475889284597134E+00    2.8293321497437550E+01
Au    4.6690965788897702E-04    3.9913718199849285E-05    3.0365466187922905E+01
Au    4.6026451295094907E-04    4.1475916521787806E+00    3.0365466187922905E+01
Au    2.0748512987228467E+00    2.0738157829484902E+00    3.0365466187922905E+01
Au    2.0748446535779088E+00    6.2213675214090713E+00    3.0365466187922905E+01
Au    4.1492423329327428E+00    3.9913718199851169E-05    3.0365466187922905E+01
Au    4.1492356877878045E+00    4.1475916521787806E+00    3.0365466187922905E+01
Au    6.2236267219977019E+00    2.0738157829484902E+00    3.0365466187922905E+01
Au    6.2236200768527636E+00    6.2213675214090713E+00    3.0365466187922905E+01
Au    4.9544908162787321E-04    2.0738185066675574E+00    3.2437610878408258E+01
Au    4.8880393668984732E-04    6.2213702451281394E+00    3.2437610878408258E+01
Au    2.0748864832915235E+00    4.2637437267214006E-05    3.2437610878408258E+01
Au    2.0748798381465856E+00    4.1475943758978477E+00    3.2437610878408258E+01
Au    4.1492708723564817E+00    2.0738185066675574E+00    3.2437610878408258E+01
Au    4.1492642272115434E+00    6.2213702451281394E+00    3.2437610878408258E+01
Au    6.2236619065663792E+00    4.2637437267201863E-05    3.2437610878408258E+01
Au    6.2236552614214409E+00    4.1475943758978477E+00    3.2437610878408258E+01
     &END COORD
     &KIND Au
       BASIS_SET SZV-MOLOPT-SR-GTH
       POTENTIAL GTH-PADE-q11
       &POTENTIAL
 1 0 10
  0.5900000000000000E+00 1  0.1160442790000000E+02
 3
  0.5211797500000001E+00 2  0.2538613590000000E+01 -0.1046136640000000E+01
  0.2701113200000000E+01
  0.6306130599999999E+00 2  0.3948527000000000E+00 -0.8695921300000000E+00
  0.2057830560000000E+01
  0.4407064300000000E+00 2 -0.4719069660000000E+01  0.7277708100000000E+00
 -0.1650429070000000E+01
         # Potential name:  GTH-PADE-Q11  for symbol:  AU
         # Potential read from the potential filename: GTH_POTENTIALS
       &END POTENTIAL
     &END KIND
     &KIND C
       BASIS_SET DZVP-MOLOPT-SR-GTH
       ELEMENT C
       POTENTIAL GTH-PADE-q4
       &POTENTIAL
 2 2
  0.3488304500000000E+00 2 -0.8513771100000000E+01  0.1228432030000000E+01
 2
  0.3045532100000000E+00 1  0.9522841789999999E+01
  0.2326773000000000E+00 0
         # Potential name:  GTH-PADE-Q4  for symbol:  C
         # Potential read from the potential filename: GTH_POTENTIALS
       &END POTENTIAL
     &END KIND
     &KIND S
       BASIS_SET DZVP-MOLOPT-SR-GTH
       ELEMENT S
       POTENTIAL GTH-PADE-q6
       &POTENTIAL
 2 4
  0.4200000000000000E+00 1 -0.6554491840000000E+01
 2
  0.3617566500000000E+00 2  0.7905302500000000E+01 -0.1731881300000000E+01
  0.4471698300000000E+01
  0.4052850200000000E+00 1  0.3866579000000000E+01
         # Potential name:  GTH-PADE-Q6  for symbol:  S
         # Potential read from the potential filename: GTH_POTENTIALS
       &END POTENTIAL
     &END KIND
     &KIND H
       BASIS_SET DZVP-MOLOPT-SR-GTH
       ELEMENT H
       POTENTIAL GTH-PADE-q1
       &POTENTIAL
 1
  0.2000000000000000E+00 2 -0.4180236800000000E+01  0.7250748200000000E+00
 0
         # Potential name:  GTH-PADE-Q1  for symbol:  H
         # Potential read from the potential filename: GTH_POTENTIALS
       &END POTENTIAL
     &END KIND
     &TOPOLOGY
       COORD_FILE_NAME em.xyz
       COORD_FILE_FORMAT  XYZ
       NUMBER_OF_ATOMS  116
       MULTIPLE_UNIT_CELL  1 1 1
     &END TOPOLOGY
   &END SUBSYS
 &END FORCE_EVAL
