 # Version information for this restart file 
 # current date 2022-08-18 17:39:44.118
 # current working dir /rds/general/user/jj1921/home/junction/MD/AIMD
 # Program compiled at                              Thu 12 Jul 13:52:12 BST 2018
 # Program compiled on                                      build-2.hpc.ic.ac.uk
 # Program compiled for                                       Linux-x86-64-intel
 # Source code revision number                                         svn:18464
 &GLOBAL
   PRINT_LEVEL  LOW
   PROJECT_NAME AIMD
   RUN_TYPE  MD
 &END GLOBAL
 &MOTION
   &MD
     ENSEMBLE  NVT
     STEPS  100000
     TIMESTEP     4.9999999999999989E-01
     STEP_START_VAL  20600
     TIME_START_VAL     1.0300000000004335E+04
     ECONS_START_VAL     5.3102998044228311E+00
     TEMPERATURE     3.0000000000000000E+02
     &THERMOSTAT
       TYPE  CSVR
       &CSVR
         TIMECON     9.9999999999999955E+02
         &THERMOSTAT_ENERGY
               7.9785264518772845E+00
         &END THERMOSTAT_ENERGY
         &RNG_INIT
Wiener process for Thermostat # 1        1 F T F  -2.2923373730756018E+00        1855608764.0        1444559341.0        2290515365.0        4239704226.0        3988512410.0        3881585643.0             12345.0             12345.0             12345.0             12345.0             12345.0             12345.0             12345.0             12345.0             12345.0             12345.0             12345.0             12345.0
         &END RNG_INIT
       &END CSVR
     &END THERMOSTAT
     &AVERAGES  T
       &RESTART_AVERAGES
         ITIMES_START  1
         AVECPU     9.8636413523954289E+01
         AVEHUGONIOT     0.0000000000000000E+00
         AVETEMP_BARO     0.0000000000000000E+00
         AVEPOT    -9.2480269549038057E+03
         AVEKIN     9.5185049588689086E-01
         AVETEMP     3.0686090372120918E+02
         AVEKIN_QM     0.0000000000000000E+00
         AVETEMP_QM     0.0000000000000000E+00
         AVEVOL     5.6045166857478907E+04
         AVECELL_A     3.3659572082093277E+01
         AVECELL_B     2.9150044503611529E+01
         AVECELL_C     5.7120283452307994E+01
         AVEALPHA     9.0000000000000000E+01
         AVEBETA     9.0000000000000000E+01
         AVEGAMMA     9.0000000000000000E+01
         AVE_ECONS    -4.2305148205822054E+06
         AVE_PRESS     0.0000000000000000E+00
         AVE_PXX     0.0000000000000000E+00
       &END RESTART_AVERAGES
     &END AVERAGES
     &PRINT
       &ENERGY  ON
         &EACH
           MD  1
         &END EACH
       &END ENERGY
     &END PRINT
   &END MD
   &CONSTRAINT
     &FIXED_ATOMS
       COMPONENTS_TO_FIX  XYZ
       LIST  499..534
     &END FIXED_ATOMS
   &END CONSTRAINT
   &PRINT
     &TRAJECTORY  ON
       &EACH
         MD  1
       &END EACH
     &END TRAJECTORY
     &VELOCITIES  ON
       &EACH
         MD  1
       &END EACH
     &END VELOCITIES
     &STRESS  ON
       &EACH
         MD  1
       &END EACH
     &END STRESS
     &RESTART_HISTORY  SILENT
       &EACH
         MD  25
       &END EACH
     &END RESTART_HISTORY
   &END PRINT
 &END MOTION
 &FORCE_EVAL
   METHOD  QS
   &DFT
     BASIS_SET_FILE_NAME /rds/general/user/jj1921/home/BASIS_COM_MOLOPT_GTH
     POTENTIAL_FILE_NAME /rds/general/user/jj1921/home/GTH_POTENTIALS
     &SCF
       MAX_SCF  30
       EPS_SCF     9.9999999999999995E-07
       SCF_GUESS  RESTART
       &OT  T
         MINIMIZER  DIIS
         SAFE_DIIS  F
         STEPSIZE     1.0000000000000000E-02
         PRECONDITIONER  FULL_ALL
         ENERGY_GAP     1.0000000000000000E-03
       &END OT
       &OUTER_SCF  T
         EPS_SCF     9.9999999999999995E-07
         MAX_SCF  200
       &END OUTER_SCF
       &MIXING  T
         METHOD  DIRECT_P_MIXING
         ALPHA     2.9999999999999999E-01
       &END MIXING
       &PRINT
         &RESTART_HISTORY  SILENT
           BACKUP_COPIES  3
         &END RESTART_HISTORY
       &END PRINT
     &END SCF
     &QS
       EPS_DEFAULT     9.9999999999999994E-12
       EXTRAPOLATION  ASPC
       EXTRAPOLATION_ORDER  0
       METHOD  GPW
     &END QS
     &MGRID
       NGRIDS  4
       CUTOFF     5.0000000000000000E+02
       &RS_GRID
         DISTRIBUTION_TYPE  REPLICATED
       &END RS_GRID
     &END MGRID
     &XC
       DENSITY_CUTOFF     1.0000000000000000E-10
       GRADIENT_CUTOFF     1.0000000000000000E-10
       TAU_CUTOFF     1.0000000000000000E-10
       &XC_FUNCTIONAL  NO_SHORTCUT
         &PBE  T
         &END PBE
       &END XC_FUNCTIONAL
       &VDW_POTENTIAL
         POTENTIAL_TYPE  PAIR_POTENTIAL
         &PAIR_POTENTIAL
           R_CUTOFF     8.0000000000000000E+00
           TYPE  DFTD3
           PARAMETER_FILE_NAME dftd3.dat
           REFERENCE_FUNCTIONAL PBE
           EPS_CN     1.0000000000000000E-02
           CALCULATE_C9_TERM  T
           REFERENCE_C9_TERM  T
           LONG_RANGE_CORRECTION  T
         &END PAIR_POTENTIAL
       &END VDW_POTENTIAL
     &END XC
   &END DFT
   &SUBSYS
     &CELL
       A     1.7811878396732908E+01    0.0000000000000000E+00    0.0000000000000000E+00
       B     0.0000000000000000E+00    1.5425539180689931E+01    0.0000000000000000E+00
       C     0.0000000000000000E+00    0.0000000000000000E+00    3.0226752151153697E+01
       PERIODIC  XYZ
       MULTIPLE_UNIT_CELL  1 1 1
     &END CELL
     &COORD
H    1.2067808080038882E+01   -1.1234189048898507E-01    2.2363266573674014E+01
H    1.0502500162196002E+01    5.9215284401001975E-02    2.2741646602769141E+01
O    1.1428595694226409E+01    4.0466024364004488E-01    2.2943198481626638E+01
H    8.7138120758791544E+00    1.6866421935779453E+01    8.2501606416260742E+00
H    7.3751875491744645E+00    1.7653107760996477E+01    8.0442289400161258E+00
O    7.7760630852092385E+00    1.6783014402713519E+01    8.2880532819096064E+00
H    5.9962326253241542E+00    1.6721708094815256E+01    1.1048380806846911E+01
H    7.0383374738203113E+00    1.6055532344671860E+01    9.8922378730186544E+00
O    6.5791619859088799E+00    1.5922930421626349E+01    1.0787425041611593E+01
H    9.4632412606816185E-01    6.6277912819425318E+00    1.4077745542370391E+01
H    2.2978325029696647E+00    6.9418415556048334E+00    1.3366512614164552E+01
O    1.3324469112521728E+00    6.7874948670861501E+00    1.3167736009269273E+01
H    1.4918175276806915E+01    5.2808054181407753E+00    1.0129561010690225E+01
H    1.5412236886870042E+01    4.8483927874396953E+00    8.7492764907162002E+00
O    1.4657827482049333E+01    5.2745163775288235E+00    9.2379584044535470E+00
H    8.6100885113757002E+00    1.3678871315834623E+01    1.1935985229989772E+01
H    8.3929716043866662E+00    1.2082703205820229E+01    1.1958750153105710E+01
O    8.9942142391345179E+00    1.2806858269172276E+01    1.1678855833657551E+01
H   -9.2226333271358008E-01    1.1239177544110666E+01    2.0118037569462171E+01
H   -9.4293930152252980E-01    1.0270919215022410E+01    2.1465970605350289E+01
O   -4.5459702095093885E-01    1.1024008032269277E+01    2.0985683483916841E+01
H    5.0784789803064534E+00    9.4520140969766846E+00    9.0200115325869010E+00
H    4.4406561803553357E+00    8.9881382194873716E+00    1.0460631721721196E+01
O    4.4564442647745901E+00    8.8464187482597119E+00    9.4732915964707995E+00
H    7.9526293815929430E+00    1.1933004578812470E+01    2.2603815922982328E+01
H    9.0516538917006812E+00    1.3065423067435443E+01    2.2701930705935510E+01
O    8.8528288879221861E+00    1.2102150409628528E+01    2.2977729079514166E+01
H    3.6206985506824063E+00    1.8759846630584935E+01    2.2473060216360579E+01
H    4.8731514033929448E+00    1.9371442521259493E+01    2.3131731200996384E+01
O    4.3701499111180544E+00    1.9323269174041577E+01    2.2341757415187132E+01
H    1.4273627884776266E+01   -1.3277966916215185E+00    1.4758109159731173E+01
H    1.5183799991416402E+01   -2.4781038510470359E+00    1.5517951438499995E+01
O    1.4329469554254086E+01   -1.9492106445637376E+00    1.5547810708333461E+01
H    3.5641297993211136E+00    5.6026562460204694E+00    8.8047818379449900E+00
H    4.1040411876063612E+00    6.9725016763066012E+00    9.4373830124733669E+00
O    3.9150584051248538E+00    6.0430870372023682E+00    9.7011602958993226E+00
H    6.6255623984290368E+00    1.0499161393143345E+01    7.3583690757871336E+00
H    5.3116718824938367E+00    1.1350709933897750E+01    8.0079404865587556E+00
O    6.0276798677681720E+00    1.0700587068121358E+01    8.1394326612366186E+00
H    2.7727558432982030E-01    8.8158619461238086E+00    1.6685714308856621E+01
H    1.1902694237016453E+00    1.0073343858220367E+01    1.6746802912282895E+01
O    1.0847150373510746E+00    9.2155265865456339E+00    1.6294472618064841E+01
H    1.8119695181771586E+01    1.0031107650810400E+01    8.0619815558058470E+00
H    1.6668144843096265E+01    9.8305507263826613E+00    7.8071658826501471E+00
O    1.7265244895899407E+01    1.0582179572595365E+01    7.9971620875370508E+00
H    1.1008833818314844E+01    1.9180002416119266E+00    7.8822936580396883E+00
H    1.0954567819033146E+01    4.1696005774792616E-01    8.3129723050303728E+00
O    1.0475644130341701E+01    1.2925965288247343E+00    8.3636418061924651E+00
H    4.2789401246739706E-01    7.4979176480900183E+00    1.1609796250008424E+01
H    4.4667657026749913E-01    9.0286061498975574E+00    1.1330169642426132E+01
O    4.3692368094519790E-02    8.1620941375202598E+00    1.1005393089651610E+01
H    2.8085213433206468E+00    6.5581598804147694E+00    1.6225563812372769E+01
H    1.7134151701743412E+00    7.6992274807409471E+00    1.6615615350336089E+01
O    1.8444405804472430E+00    6.6964975202841241E+00    1.6510278077949575E+01
H    6.6462935133279117E+00    1.0762948362160351E+01    1.3069024610134822E+01
H    7.1939596963293297E+00    1.1148400011380966E+01    1.4522802897341174E+01
O    6.3724469128971837E+00    1.0960539433617036E+01    1.4009851103072123E+01
H    1.3770366543021904E+01   -8.0013355942741615E-01    1.8239126063989428E+01
H    1.2512190464171203E+01   -1.7013874874815273E+00    1.7892745105951359E+01
O    1.3142602166740179E+01   -1.4519277245570030E+00    1.8616852060960685E+01
H    9.0145700235846675E+00    5.3848619982361807E+00    1.5459360274185233E+01
H    1.0133115859372777E+01    6.3339639972840116E+00    1.6164894822044587E+01
O    9.9857105498147689E+00    5.4745540422663952E+00    1.5704877383130798E+01
H    1.5203960662298329E+01    7.9784354434440425E+00    7.6336620272065892E+00
H    1.6562081634364077E+01    7.3176615888363941E+00    8.1120626218024032E+00
O    1.6205978372686882E+01    8.0493934986322984E+00    7.4799868595725032E+00
H    1.1031878534152602E+01    3.2992875988471737E+00    2.1096411840523416E+01
H    1.1221802652856127E+01    2.0094561173534191E+00    2.2292390165929579E+01
O    1.1206190162065557E+01    3.0226018183346599E+00    2.2084821840716657E+01
H    1.6835869577387417E+01    1.1511973693277588E+01    9.4312174218151110E+00
H    1.6291406221030218E+01    1.0721310810504926E+01    1.0741255530559531E+01
O    1.6651308231884723E+01    1.1566919087846966E+01    1.0392126277904197E+01
H    4.9133510715311024E+00    6.0112239678980366E+00    1.2829993242032863E+01
H    4.4810557577882753E+00    6.4797376955575281E+00    1.4274136757522902E+01
O    4.2145321219913958E+00    6.4922814745677941E+00    1.3259072606110506E+01
H    1.8420251421147459E+01    5.8202352171615193E+00    2.2458888460904600E+01
H    2.0057103569408987E+01    5.7525174746820458E+00    2.2267067896865242E+01
O    1.9155754546238040E+01    5.2491669340853555E+00    2.2304575430796405E+01
H    5.7653443170496113E+00    1.5297971592589972E+01    2.1878025847366743E+01
H    4.3019342378075445E+00    1.4710887784806673E+01    2.1743467099062350E+01
O    5.2631356135273828E+00    1.4547579269645629E+01    2.1496589251792315E+01
H    1.7378494296149778E+01    1.6960701560878761E+01    1.0591657238075792E+01
H    1.6412426236338881E+01    1.5848445101756237E+01    1.0877588932646926E+01
O    1.7340558453225849E+01    1.6003575986135736E+01    1.0649867133756617E+01
H    1.4007901741794429E+01    1.0057334715798721E+01    1.8270907886084899E+01
H    1.3430442854409586E+01    9.5730197262412133E+00    1.6877234493363922E+01
O    1.4162032735814359E+01    9.4123711366897229E+00    1.7500541006008962E+01
H    1.3176284759315276E+01    1.0002147770036407E+01    7.2239730526087573E+00
H    1.3422318972809911E+01    9.9620403682454750E+00    8.8521882099601612E+00
O    1.2992388019903679E+01    1.0519521064122577E+01    8.0015834984663634E+00
H   -7.6249406655499663E-01    2.7838380413051294E+00    1.6563854316827488E+01
H   -4.9583015168399319E-01    4.2609243262505467E+00    1.6715405118823679E+01
O   -5.0710734380012756E-01    3.4426302669644335E+00    1.7290623881979304E+01
H    2.0296665737494207E-01    1.1771364933741753E+01    1.7422524578200129E+01
H    1.6672275188897911E+00    1.1892293601465100E+01    1.7902105459622060E+01
O    1.1930643545669222E+00    1.1711845401051431E+01    1.7113013175747781E+01
H    1.6846731780891492E+01    3.2010324408117143E+00    1.8661723243016876E+01
H    1.6838307963838030E+01    2.8736033804623311E+00    2.0220437365814252E+01
O    1.6200419340644576E+01    3.1456769553403521E+00    1.9539705176881931E+01
H    1.4667441842874094E+01   -5.5294007490195152E-01    1.6553320554537578E+01
H    1.4585556873534733E+01    9.5872350568797793E-01    1.7259279904077598E+01
O    1.4936027364700918E+01    7.5811361717425821E-02    1.7311088445358564E+01
H   -2.0417048791863186E+00    6.7761180419329952E+00    1.3005430931055985E+01
H   -1.4312401179313612E+00    8.0650367950764394E+00    1.3654478259384222E+01
O   -1.9520238044421987E+00    7.2767890754986579E+00    1.3859104833294460E+01
H    1.4684372875768459E+00    7.9487092538049808E-01    1.3335374866865077E+01
H    1.7032302565607866E+00    2.0449443231899180E+00    1.4305249556046554E+01
O    1.1046669750503451E+00    1.7082300492151856E+00    1.3599039350122013E+01
H    1.4616115991673407E+01    1.4850333315539427E+01    1.0991697390523528E+01
H    1.4718377936170230E+01    1.5519412056851587E+01    1.2475112318949332E+01
O    1.4845876760666005E+01    1.5746794305923419E+01    1.1506184319710373E+01
H    4.7314243269283640E+00    1.4250972876314918E+01    1.4076058773908043E+01
H    4.9576799829357547E+00    1.4251730424077397E+01    1.5667302109794203E+01
O    5.1958264080758374E+00    1.4714253782941134E+01    1.4807258125567964E+01
H   -1.9683061679606548E+00    1.1405652042948407E+01    1.8112555852605741E+01
H   -1.3644198694170859E+00    1.2872015598396830E+01    1.8643006737551552E+01
O   -1.1786333644430587E+00    1.1900008989309534E+01    1.8431560541350507E+01
H   -5.2571265072022177E-01    1.2618587291740418E+01    1.5288803264167315E+01
H   -7.8209416378614016E-01    1.1227820502676218E+01    1.4767753011617224E+01
O   -1.2075813064426058E+00    1.1980351419766619E+01    1.5280725224716770E+01
H    1.8807129111370990E+01    1.2609780489732266E+01    2.3010409035382239E+01
H    1.7791644110904883E+01    1.2253584188019962E+01    2.1998137265119389E+01
O    1.8006374831611957E+01    1.3025152208845203E+01    2.2631021526274175E+01
H    3.4233030693104403E+00    4.0005442948554588E+00    7.0842928883983163E+00
H    3.4485923271318817E+00    3.3350755752606238E+00    8.5455196584719424E+00
O    3.9547521106877981E+00    4.0100809868111016E+00    7.9397927450524390E+00
H    1.6518943121885636E+00    7.2980885035416039E+00    7.9533506829956533E+00
H    9.7162265808782156E-01    7.2531316726722714E+00    9.3714817604881251E+00
O    9.5413703292760776E-01    6.8244715160262279E+00    8.4671897735212003E+00
H   -4.7550679851114914E+00    2.9690457401721533E+00    1.7891397763721990E+01
H   -3.3732237858717724E+00    2.8527770829261976E+00    1.8475965365217629E+01
O   -3.8454247331280933E+00    2.5867093609756857E+00    1.7666973784741561E+01
H    1.1015627880902706E+01    8.3186599704813329E+00    1.7290100404584376E+01
H    1.2087413810982493E+01    7.5618835510791911E+00    1.6614905999793859E+01
O    1.1197156444989801E+01    7.4283540544341191E+00    1.7006282682035266E+01
H    3.3895905320408243E-01    6.0338075608373289E+00    1.5873913246940832E+01
H   -9.6134818360527319E-01    5.9036546928046896E+00    1.4965140731144283E+01
O   -2.4972609095577772E-01    5.3579946930990321E+00    1.5475178922515063E+01
H    3.5419852589785856E+00    2.2478625787140887E+00    1.0229916660777365E+01
H    2.4035770305299500E+00    3.3373981580700813E+00    1.0518153424686258E+01
O    2.7121262127767181E+00    2.6796173115956838E+00    9.8211445790133336E+00
H    1.0114211796087922E+01    1.3357567849569431E+01    1.3338041178096345E+01
H    1.1640921396846954E+01    1.3436337337858383E+01    1.3399935353237645E+01
O    1.0873166336778043E+01    1.3663518646146626E+01    1.3908742764800710E+01
H    2.7572167697255510E+00    8.6216499515947032E+00    2.3136126110049961E+01
H    1.4962576456030223E+00    8.9598412732193733E+00    2.2180511152841895E+01
O    1.9029048918403855E+00    9.0174697473176781E+00    2.3072485252754969E+01
H    7.4774025510062518E+00    1.5100020599776522E+01    7.5084638810834914E+00
H    8.0931531947715634E+00    1.3695040620050559E+01    8.0279780221639445E+00
O    7.4032992862110456E+00    1.4108469802214762E+01    7.4709239791263542E+00
H    1.3574072431892084E+01    1.2087408420591624E+01    7.7949849198176526E+00
H    1.3098317884111744E+01    1.3553585152438361E+01    8.0800398613828524E+00
O    1.3923937313867146E+01    1.2997169967873081E+01    7.7261506853022439E+00
H    2.6870701807417690E+00    9.8625650262094773E+00    1.2176573166834638E+01
H    1.4618405647469694E+00    1.0859210232113950E+01    1.1548789379313527E+01
O    1.7132102570153325E+00    1.0047804017770115E+01    1.2157834020613461E+01
H    2.2642351323436367E+00    2.8000248995473744E+00    2.0285390152649548E+01
H    2.9907292042781841E+00    2.6172899060300017E+00    1.8871982106088510E+01
O    2.1619437128566221E+00    2.9418803391275907E+00    1.9268141294073693E+01
H    2.2864235998875850E+00    1.5955621329733802E+01    1.6701061524139067E+01
H    1.7139187232522155E+00    1.5272385702790002E+01    1.7919574922515721E+01
O    2.1233425019516088E+00    1.5077725191560623E+01    1.7035797085497030E+01
H   -3.7591566278321524E+00    7.7973839573340324E+00    1.4697724355095460E+01
H   -4.6775131596412391E+00    9.0722168818371696E+00    1.4471253110985810E+01
O   -4.6850201177727984E+00    8.0739234140747786E+00    1.4631721544315388E+01
H    1.2382732671615512E+01    8.0110254700643235E+00    2.0525424229704626E+01
H    1.1277419572790475E+01    9.2454288475183048E+00    2.0670066957801197E+01
O    1.1838777795503036E+01    8.6234825089672338E+00    2.1177261009577023E+01
H    1.3314758858662964E+01    5.7686433380434359E+00    1.7939260510223519E+01
H    1.1711471021722998E+01    5.9908969129513689E+00    1.7946771274421081E+01
O    1.2442513820190102E+01    5.3055717197306977E+00    1.7988376403572371E+01
H    1.2950982389493849E+01    5.0424839571705675E+00    2.2682988600997810E+01
H    1.2455980867967924E+01    3.6226576740110406E+00    2.2400312124195381E+01
O    1.3339639390339022E+01    4.1935960378896322E+00    2.2425767684106678E+01
H    9.4798016057183183E+00    9.1706718336971100E+00    1.4102922732251942E+01
H    9.5199257726557125E+00    1.0665595973041320E+01    1.4380766589601510E+01
O    1.0057674900429062E+01    9.9041539303723329E+00    1.3948089834667678E+01
H    1.6555033359952393E+01    1.4334235556305922E+01    2.2424248230245574E+01
H    1.5065832035945743E+01    1.4267069693186569E+01    2.1961658874102053E+01
O    1.5908199001013985E+01    1.4701929751926775E+01    2.1777867596153083E+01
H    7.6960220936588799E+00    3.8755530983995614E+00    9.4554128043053769E+00
H    9.3380049805430936E+00    3.8517135873457238E+00    9.5002905965256321E+00
O    8.5021957945597588E+00    3.5380913655546400E+00    9.9509051823764914E+00
H    2.2087236836822597E+00    1.5036704124754865E+01    2.0862259966810559E+01
H    1.8604633936063240E+00    1.4102665354380440E+01    2.2038704891623617E+01
O    2.5533529753811806E+00    1.4772871536303066E+01    2.1716188486644395E+01
H    1.3922026350088117E+01    1.1407784137816547E+01    2.0522790279434179E+01
H    1.3497534036892741E+01    1.2269339776487172E+01    1.9269866798694640E+01
O    1.3841480946964488E+01    1.1392405546267547E+01    1.9535465909324245E+01
H    1.5058386817688582E+01    1.2555265761262733E+00    2.2342155573701419E+01
H    1.4534424584929605E+01    2.6778889797390821E+00    2.2737911127114398E+01
O    1.5161234082472618E+01    1.9838814548471875E+00    2.2974500165273096E+01
H    9.6862575325742153E+00    4.0737387358725394E+00    1.9331930722593185E+01
H    1.1363487892910147E+01    4.1132189365186385E+00    1.9176383277170228E+01
O    1.0626845842905572E+01    3.5299379873589176E+00    1.9560785194290414E+01
H    8.8647208799013111E+00    1.1683689615811303E+01    1.6385698205059715E+01
H    8.3897054888985103E+00    1.2690692856031289E+01    1.5283412638046014E+01
O    8.6209332151308580E+00    1.1755806709402618E+01    1.5430440760589464E+01
H    3.8312249113149841E+00    1.0021214603518334E+00    7.5455816010557148E+00
H    3.3544539049460740E+00    8.2849447906708854E-02    8.6769280493527834E+00
O    4.1225157485170669E+00    2.5509329982647427E-01    8.0251847538408985E+00
H    1.9796029240952966E+00    1.2789551091813994E+01    9.7093046706286348E+00
H    2.9962056973170861E+00    1.2826012398669979E+01    8.4015732322857453E+00
O    2.1299779850871010E+00    1.2545047921593012E+01    8.7343188720213050E+00
H    7.6130881086480162E+00    1.5522882118690649E+01    1.1904243127211357E+01
H    9.1482759293944849E+00    1.5523199059337632E+01    1.2345886678739760E+01
O    8.2530641793180806E+00    1.5084319280030092E+01    1.2616781044654374E+01
H    1.5334979469571770E+00    1.5280377146588169E+01    1.0468790415313954E+01
H    3.0120161066567226E+00    1.5083789154603577E+01    1.1052256271765128E+01
O    2.4822050872288433E+00    1.5299713286954541E+01    1.0224030791215814E+01
H    9.2584016022056503E-01   -8.3129873086815376E-01    1.6148719465545476E+01
H   -5.9777243856781048E-01   -2.9293572694645931E-01    1.5812360796979988E+01
O    2.9019275188518750E-02   -9.7826894582618573E-01    1.5654334811848447E+01
H    6.1411375253672205E+00    1.3097803877765795E+01    2.1641032269605496E+01
H    6.9546340973268945E+00    1.1886264893149828E+01    2.0825760499562094E+01
O    6.5787420120820199E+00    1.2188122225202337E+01    2.1673836462133515E+01
H    8.9034425829995389E-01    8.3762133676981012E+00    1.9968277795649545E+01
H    7.8677851836663215E-01    9.8631216656977863E+00    2.0467296611959970E+01
O    1.4299460715056773E+00    9.1063954082010881E+00    2.0418700049509230E+01
H    1.0362075554373039E+01    7.2359974168055006E+00    1.0622687459537653E+01
H    1.1144559650256957E+01    6.5070411084961108E+00    1.1801797716368178E+01
O    1.1183019332753226E+01    6.7419538425299219E+00    1.0842394606735832E+01
H    1.9542347851261521E+01    3.0216261378170644E+00    1.2588268092896305E+01
H    1.9910557527857748E+01    4.5484316499855968E+00    1.2486434617459002E+01
O    1.9453397487834476E+01    3.8608354757611694E+00    1.1987014704481972E+01
H    2.5941442220086945E+00    1.3256822924256504E+00    2.1972057725250007E+01
H    1.3040184769727876E+00    2.2266295632468172E+00    2.1975133507284117E+01
O    2.2809199578769772E+00    2.2466909667947457E+00    2.1844573285670737E+01
H    5.6098270894485536E+00    3.7950900163714341E+00    8.0270904296865364E+00
H    7.0266995863465160E+00    4.3572072587812194E+00    7.5961824867951799E+00
O    6.6162345465240238E+00    3.6356560932847346E+00    8.1274122491040526E+00
H    1.2750018197935997E+01    8.1586048165486247E+00    1.0116601920114128E+01
H    1.2340141240257420E+01    9.4963656147471731E+00    1.1085830587271881E+01
O    1.3090487454780639E+01    9.0504319397021202E+00    1.0468367250094287E+01
H    1.3717121997693482E+01    8.0000553358967768E+00    1.8578335363314235E+01
H    1.4059627233064166E+01    6.6949453497144633E+00    1.9517548916423880E+01
O    1.3516339708672938E+01    7.5047184186079789E+00    1.9409675047722505E+01
H    1.5976458414007251E+01    4.7749422720039645E+00    1.1468514026665041E+01
H    1.4535121984127770E+01    4.6437824000743690E+00    1.2207824519892968E+01
O    1.5260987799560805E+01    5.3488334664331445E+00    1.1984763502514429E+01
H    1.3996610776158368E+01    3.5852338946138325E+00    1.5544604081004477E+01
H    1.3738453791944103E+01    3.7122853773661957E+00    1.4076280745941578E+01
O    1.4463911600725703E+01    3.8970223801349819E+00    1.4783549365326268E+01
H    6.5776300966256072E+00    3.9052922817927853E+00    1.5651474755761708E+01
H    6.9822110612852333E+00    2.3846158849209700E+00    1.6096647216003152E+01
O    6.2171225439797286E+00    2.9911799465336166E+00    1.5929073351397657E+01
H    1.3712875868554965E+01    5.0919311692450042E-01    1.4192076869926259E+01
H    1.5116351583688328E+01    1.0930240009972751E+00    1.4559965335630455E+01
O    1.4661749652650268E+01    2.8607995447648749E-01    1.4160278426122140E+01
H    1.0307895327545602E+01    1.0221688314971875E+01    9.7038011166324321E+00
H    1.1288848616960555E+01    1.0262112365627305E+01    8.3653612157672370E+00
O    1.0339312560501703E+01    1.0280841171062479E+01    8.7408514489511706E+00
H    1.5583603945897087E+00    5.9023410459353958E+00    1.8068544801368798E+01
H    1.4438371455503778E+00    4.5572714342959584E+00    1.8961201360200562E+01
O    1.5628488487144296E+00    5.5152423157665762E+00    1.8972851993816398E+01
H    1.6650292805557555E+01    8.0139830178564520E+00    1.8316353067283071E+01
H    1.5938382448743734E+01    8.8767638457410776E+00    1.7156752434733907E+01
O    1.6688212214424219E+01    8.3275832044779410E+00    1.7333186069327581E+01
H    7.0379177932727472E+00    1.0056955074315585E+01    1.9207486651337259E+01
H    6.0057374421840244E+00    1.1163741008569568E+01    1.8607940754003547E+01
O    6.7932372696550143E+00    1.1034920366354353E+01    1.9202603317783964E+01
H    4.9664302058679635E+00    2.3766454877871834E+00    1.4946305072148579E+01
H    4.5514793331826562E+00    1.0285008865943976E+00    1.4580195922584268E+01
O    4.3973830775636404E+00    1.9171330355948750E+00    1.4185746310055688E+01
H    1.7800436287025224E+01    6.2909040253570438E+00    1.9496717135106735E+01
H    1.6677520439967523E+01    7.1212992423259687E+00    2.0448933051840651E+01
O    1.7377684020330442E+01    7.1774700729916727E+00    1.9717669945926865E+01
H    1.8182693818469915E+00    1.1108062708077101E+01    1.4171956550897249E+01
H    1.9451453672265244E+00    1.1828069282051136E+01    1.5554179369962025E+01
O    2.4634478822694872E+00    1.1557754975779012E+01    1.4738261869858743E+01
H    7.1223846542919045E+00    1.0765841162387413E+00    2.3295844464485491E+01
H    7.1870133137036936E+00    1.8374765620741433E+00    2.1908193497436503E+01
O    7.1012648918466361E+00    9.0921969340503073E-01    2.2331120179383127E+01
H    2.5485690480840889E-01    9.4256628879391791E+00    1.5001687005161596E+01
H    3.6887471550262269E-01    9.7227014655228281E+00    1.3473744226133695E+01
O   -2.6466967166683225E-01    9.6269090829741959E+00    1.4197363317885786E+01
H    1.7272956918023421E+01    1.4540632556200205E+01    7.6500436087915915E+00
H    1.7173481248511518E+01    1.5290557589834847E+01    8.9309360237927784E+00
O    1.6905741906050931E+01    1.5490227584656886E+01    7.9916435682883238E+00
H    9.1617472827488715E+00    3.0539910683071216E+00    1.3659118641406959E+01
H    1.0189461845318977E+01    1.8073546859163763E+00    1.3770062909034786E+01
O    9.7907265365906664E+00    2.5663385887410204E+00    1.4277476581239766E+01
H    3.6471579052117549E+00    1.4056909932760828E+01    1.7053692517004123E+01
H    4.8715529994639972E+00    1.4320250605434868E+01    1.8012295495089912E+01
O    4.5235544751265229E+00    1.3668524804794655E+01    1.7256313267674788E+01
H    9.0792544975334764E+00    4.9043445246000719E+00    1.2639247573574997E+01
H    8.6369504418635312E+00    3.9977441513494747E+00    1.1513952775673761E+01
O    8.4526945813187062E+00    4.2378957353929723E+00    1.2468937861603189E+01
H    2.3975941704165399E-01    1.6367188898645715E+00    7.7799787021904008E+00
H    1.4925474280015123E+00    2.2020102020619263E+00    8.7099438023305211E+00
O    9.2386301906031520E-01    2.3409127907869012E+00    7.8676214816987722E+00
H    7.2518953445051695E+00    1.5848552780457307E+01    1.8908687486833184E+01
H    8.4029029194910176E+00    1.6647670571484138E+01    1.8002321351633789E+01
O    8.2011505413038872E+00    1.6230953944337223E+01    1.8865460472661677E+01
H    1.1385503401377440E+01   -1.7053136830471964E+00    7.5052892467118921E+00
H    1.0666675061614646E+01   -1.6460036347701608E+00    8.8138078567408531E+00
O    1.1421144127484837E+01   -1.2032456331081463E+00    8.3213127210301927E+00
H    4.0799652645041693E+00    9.9129924000082443E+00    1.8768105451552103E+01
H    2.8727263072785973E+00    9.3675735580724862E+00    1.9737704318812376E+01
O    3.8569274574910897E+00    9.3804339943159576E+00    1.9532616277924259E+01
H    1.7002762667677283E+00    1.2301901968933892E+01    2.0161853823332443E+01
H    3.1669152205530282E+00    1.2022096286800256E+01    1.9607432815260520E+01
O    2.2281179732209599E+00    1.2280655616058343E+01    1.9362352493487684E+01
H    1.2622148856601212E+01    4.5843823632803389E+00    1.2693248622059176E+01
H    1.2639364649700905E+01    3.0648169167915404E+00    1.2143177212283570E+01
O    1.3145714054572688E+01    3.8241075564974629E+00    1.2505566084540121E+01
H    1.1190256787636168E+01    1.7461932004151780E+01    1.6537647993007912E+01
H    1.0076761549113748E+01    1.6390652600224321E+01    1.6901893341091490E+01