 # Version information for this restart file 
 # current date 2022-07-14 20:01:50.105
 # current working dir /rds/general/user/jj1921/home/junction/MD/AIMD
 # Program compiled at                              Thu 12 Jul 13:52:12 BST 2018
 # Program compiled on                                      build-2.hpc.ic.ac.uk
 # Program compiled for                                       Linux-x86-64-intel
 # Source code revision number                                         svn:18464
 &GLOBAL
   PRINT_LEVEL  LOW
   PROJECT_NAME AIMD
   RUN_TYPE  MD
 &END GLOBAL
 &MOTION
   &MD
     ENSEMBLE  NVT
     STEPS  100000
     TIMESTEP     4.9999999999999989E-01
     STEP_START_VAL  4100
     TIME_START_VAL     2.0499999999998445E+03
     ECONS_START_VAL     5.3102998044228311E+00
     TEMPERATURE     3.0000000000000000E+02
     TEMP_TOL     4.0000000000000000E+01
     &THERMOSTAT
       TYPE  CSVR
       &CSVR
         TIMECON     9.9999999999999989E+02
         &THERMOSTAT_ENERGY
               7.7137277762600283E+00
         &END THERMOSTAT_ENERGY
         &RNG_INIT
Wiener process for Thermostat # 1        1 F T F   1.4480538483124761E-01        3035242905.0          76241541.0         416856752.0        2518427782.0        1369018859.0         733430044.0             12345.0             12345.0             12345.0             12345.0             12345.0             12345.0             12345.0             12345.0             12345.0             12345.0             12345.0             12345.0
         &END RNG_INIT
       &END CSVR
     &END THERMOSTAT
     &AVERAGES  T
       &RESTART_AVERAGES
         ITIMES_START  1
         AVECPU     8.3254072684136787E+01
         AVEHUGONIOT     0.0000000000000000E+00
         AVETEMP_BARO     0.0000000000000000E+00
         AVEPOT    -9.2479030315089440E+03
         AVEKIN     9.4612488000393991E-01
         AVETEMP     3.0501505957678097E+02
         AVEKIN_QM     0.0000000000000000E+00
         AVETEMP_QM     0.0000000000000000E+00
         AVEVOL     5.6045166857472301E+04
         AVECELL_A     3.3659572082087557E+01
         AVECELL_B     2.9150044503603407E+01
         AVECELL_C     5.7120283452297159E+01
         AVEALPHA     9.0000000000000000E+01
         AVEBETA     9.0000000000000000E+01
         AVEGAMMA     9.0000000000000000E+01
         AVE_ECONS    -4.2296846680536019E+06
         AVE_PRESS     0.0000000000000000E+00
         AVE_PXX     0.0000000000000000E+00
       &END RESTART_AVERAGES
     &END AVERAGES
     &PRINT
       &ENERGY  ON
         &EACH
           MD  1
         &END EACH
       &END ENERGY
     &END PRINT
   &END MD
   &CONSTRAINT
     &FIXED_ATOMS
       COMPONENTS_TO_FIX  XYZ
       LIST  499..534
     &END FIXED_ATOMS
   &END CONSTRAINT
   &PRINT
     &TRAJECTORY  ON
       &EACH
         MD  1
       &END EACH
     &END TRAJECTORY
     &VELOCITIES  ON
       &EACH
         MD  1
       &END EACH
     &END VELOCITIES
     &STRESS ON
       &EACH
         MD  1
       &END EACH
     &END STRESS
     &RESTART_HISTORY  OFF
     &END RESTART_HISTORY
   &END PRINT
 &END MOTION
 &FORCE_EVAL
   METHOD  QS
   &DFT
     BASIS_SET_FILE_NAME /rds/general/user/jj1921/home/BASIS_COM_MOLOPT_GTH
     POTENTIAL_FILE_NAME /rds/general/user/jj1921/home/GTH_POTENTIALS
     &SCF
       MAX_SCF  30
       EPS_SCF     9.9999999999999995E-07
       SCF_GUESS  RESTART
       &OT  T
         MINIMIZER  DIIS
         SAFE_DIIS  F
         STEPSIZE     1.0000000000000000E-02
         PRECONDITIONER  FULL_ALL
         ENERGY_GAP     1.0000000000000000E-03
       &END OT
       &OUTER_SCF  T
         EPS_SCF     9.9999999999999995E-07
         MAX_SCF  200
       &END OUTER_SCF
       &MIXING  T
         METHOD  DIRECT_P_MIXING
         ALPHA     2.9999999999999999E-01
       &END MIXING
       &PRINT
         &RESTART_HISTORY  SILENT
           BACKUP_COPIES  3
           &EACH
           &END EACH
         &END RESTART_HISTORY
       &END PRINT
     &END SCF
     &QS
       EPS_DEFAULT     9.9999999999999994E-12
       EXTRAPOLATION  ASPC
       EXTRAPOLATION_ORDER  0
       METHOD  GPW
     &END QS
     &MGRID
       NGRIDS  4
       CUTOFF     5.0000000000000000E+02
       &RS_GRID
         DISTRIBUTION_TYPE  REPLICATED
       &END RS_GRID
     &END MGRID
     &XC
       DENSITY_CUTOFF     1.0000000000000000E-10
       GRADIENT_CUTOFF     1.0000000000000000E-10
       TAU_CUTOFF     1.0000000000000000E-10
       &XC_FUNCTIONAL  NO_SHORTCUT
         &PBE  T
         &END PBE
       &END XC_FUNCTIONAL
       &VDW_POTENTIAL
         POTENTIAL_TYPE  PAIR_POTENTIAL
         &PAIR_POTENTIAL
           R_CUTOFF     8.0000000000000000E+00
           TYPE  DFTD3
           PARAMETER_FILE_NAME dftd3.dat
           REFERENCE_FUNCTIONAL PBE
           EPS_CN     1.0000000000000000E-02
           CALCULATE_C9_TERM  T
           REFERENCE_C9_TERM  T
           LONG_RANGE_CORRECTION  T
         &END PAIR_POTENTIAL
       &END VDW_POTENTIAL
     &END XC
   &END DFT
   &SUBSYS
     &CELL
       A     1.7811878396732908E+01    0.0000000000000000E+00    0.0000000000000000E+00
       B     0.0000000000000000E+00    1.5425539180689931E+01    0.0000000000000000E+00
       C     0.0000000000000000E+00    0.0000000000000000E+00    3.0226752151153697E+01
       PERIODIC  XYZ
       MULTIPLE_UNIT_CELL  1 1 1
     &END CELL
     &COORD
H    1.2939873144682032E+01    2.0066311777085586E+00    2.2702479958581659E+01
H    1.1684595781951300E+01    9.3615106438816009E-01    2.2858243152311847E+01
O    1.1988388864454256E+01    1.9295415614025140E+00    2.2965782299146849E+01
H    1.0394707473918420E+01    1.4296059374810378E+01    9.0432432040439839E+00
H    9.2687412161591887E+00    1.4966924704287399E+01    8.2811404125009140E+00
O    9.4638683251140048E+00    1.4117054644488144E+01    8.6647236388374953E+00
H    7.6289666507504466E+00    1.3982922971242246E+01    1.1241747480052926E+01
H    8.5229015180951713E+00    1.4432659708831762E+01    1.0112975422645098E+01
O    8.0135263572717399E+00    1.4813280647144181E+01    1.0863695398658582E+01
H    2.9864736099975753E+00    5.2827797994631975E+00    1.2824157359026538E+01
H    4.4444529967102211E+00    5.2346622405813665E+00    1.2230530142769990E+01
O    3.5074548784273252E+00    4.9292150162506534E+00    1.2043401867729488E+01
H    1.4393239135065809E+01    7.0641177294542805E+00    8.8752578104955120E+00
H    1.4662600053755247E+01    6.2610390435367576E+00    7.5081338247551574E+00
O    1.4680546628993353E+01    7.1377146232049427E+00    7.9211673665210363E+00
H    1.1377511080640879E+01    1.3879357092497337E+01    1.2386644168261425E+01
H    1.1246123215041621E+01    1.2560886422532116E+01    1.1615689677630856E+01
O    1.1905204385319234E+01    1.3257598112694488E+01    1.1841618705757996E+01
H   -1.3241717522050545E+00    1.1342193115963566E+01    2.2729661857815330E+01
H   -4.0539399761383099E-01    1.1860992308159002E+01    2.1589587438477089E+01
O   -7.6124721162507258E-01    1.2096161945407015E+01    2.2423324524221627E+01
H    6.6388968514498252E+00    9.2335460250227470E+00    9.0970481682234450E+00
H    5.6455982803532399E+00    8.6371075417532026E+00    1.0178789688129001E+01
O    5.8077748148952777E+00    8.6745716888879283E+00    9.2155111751090075E+00
H    7.2264090764574833E+00    1.1024122864725520E+01    2.2500793231558124E+01
H    7.2685171577332710E+00    1.2608260516612852E+01    2.2088920785454707E+01
O    7.8323892693358479E+00    1.1767016836846640E+01    2.2279046547398515E+01
H    7.9933700541169674E+00    1.5194971267094738E+01    2.1771734669084363E+01
H    8.1237107052075181E+00    1.6641325160043081E+01    2.1660406604600123E+01
O    8.7324272487179897E+00    1.5841613974283472E+01    2.1536344164049567E+01
H    1.3223819505329837E+01    1.7864064680705921E-01    1.5857862053463990E+01
H    1.4427471893356190E+01    1.3475173149987771E+00    1.5672878171880534E+01
O    1.4174811361848645E+01    4.8042394879866895E-01    1.6041936374731144E+01
H    4.8845678998056465E+00    5.6756715527808179E+00    8.1109718792876837E+00
H    5.5849434697174276E+00    7.1111672211258163E+00    8.6188658578486574E+00
O    5.7420869722840413E+00    6.1828662054437453E+00    8.4056331432485383E+00
H    7.7025936187533439E+00    1.1236724999963377E+01    9.3023466351456303E+00
H    6.6165579273893043E+00    1.1380741947645959E+01    1.0523915674543359E+01
O    7.2321862450650451E+00    1.0822130370115387E+01    1.0084664471273245E+01
H    1.9004962981544931E+00    8.4861935993768611E+00    1.7772393466393122E+01
H    3.3313163330316886E+00    9.0403719000930902E+00    1.7953508587351024E+01
O    2.7208425786774488E+00    8.7388658028229145E+00    1.7230681460659017E+01
H    1.7595146600544684E+01    9.6621013417793158E+00    7.5804172300972148E+00
H    1.6424247628683645E+01    1.0667789373949143E+01    7.4730234066071377E+00
O    1.7440125862465337E+01    1.0643847586228381E+01    7.5290606839887495E+00
H    1.1050733686862630E+01    4.1557625536928002E+00    7.5459413994340716E+00
H    1.1655875296662932E+01    2.7413139196648824E+00    7.7283732610635836E+00
O    1.0820627634754192E+01    3.2196019534546143E+00    7.7958166181805151E+00
H    3.2944405950879463E+00    6.3886774012417700E+00    1.0684652929022192E+01
H    3.2420308144549788E+00    7.9674516256936414E+00    1.0418250950671581E+01
O    3.1409642120868653E+00    7.0481704604533588E+00    1.0025630474641913E+01
H    4.5791272743546125E+00    8.0796424280450694E+00    1.5145622524713046E+01
H    3.5233385822635954E+00    7.6550694734246756E+00    1.6204579182037374E+01
O    4.2612976637232389E+00    7.3061122021818825E+00    1.5648086023816974E+01
H    9.9730467176748032E+00    9.6387629563279020E+00    1.3822687011976605E+01
H    9.0985004734390706E+00    1.0759103381588563E+01    1.4325802614770494E+01
O    9.3576632104141986E+00    1.0328535937243812E+01    1.3434570501532610E+01
H    1.3037542535059977E+01   -1.7525711357828231E+00    1.8366812466905344E+01
H    1.4365870997382933E+01   -2.1854392074053886E+00    1.7678414807738783E+01
O    1.3845331452254134E+01   -2.2649965209319949E+00    1.8529484074275725E+01
H    1.2242749471256037E+01    6.4413994800238212E+00    1.5928049279662156E+01
H    1.0760673748382446E+01    6.6841791656811047E+00    1.6379324861210058E+01
O    1.1637480455556522E+01    6.5735265057303174E+00    1.6763131261083714E+01
H    1.6085125177745002E+01    7.6544957355131045E+00    7.6586681204516189E+00
H    1.7705087927569341E+01    7.4602052587661030E+00    7.7869223428337069E+00
O    1.7048710688049837E+01    8.1039645213959499E+00    7.3855629742154036E+00
H    9.0835386935845168E+00    2.7711534892818817E+00    2.1939891518351882E+01
H    1.0674523642797260E+01    2.6384459271878846E+00    2.2083503653853899E+01
O    9.9347770640029758E+00    3.2796378546184224E+00    2.1895963956433423E+01
H    1.8072610179111710E+01    1.2269855862545008E+01    1.1676566345142360E+01
H    1.8487513938699887E+01    1.3765820242149532E+01    1.2336128710046022E+01
O    1.7935118534011071E+01    1.3329548440718705E+01    1.1656274937403746E+01
H    6.7866628101246222E+00    5.2524257140689370E+00    1.2699236792497221E+01
H    6.2451393606467613E+00    5.8206548383600536E+00    1.3887839095868436E+01
O    6.0026127188555085E+00    5.8505561196058053E+00    1.2937873557017683E+01
H    1.7842246174084110E+01    5.8489127529561280E+00    2.2087206257722205E+01
H    1.6786006518584390E+01    4.7261903729882588E+00    2.1878814252497392E+01
O    1.6855525015307652E+01    5.7040484252092254E+00    2.1809655616880619E+01
H    4.7756948934001260E+00    1.4212779182350175E+01    1.9602117147288720E+01
H    6.0000647968815066E+00    1.4418942252260578E+01    1.8779052765904158E+01
O    5.6645990606964105E+00    1.4659408676768232E+01    1.9624017424188054E+01
H    1.6301211219917413E+01    1.6419738319129134E+01    9.8310203094191220E+00
H    1.5732921217363639E+01    1.6418700426826987E+01    1.1307942862491482E+01
O    1.6014460892284173E+01    1.7089404429039103E+01    1.0492739212033801E+01
H    1.7837642566660623E+01    1.0308570688053292E+01    1.8500594879353930E+01
H    1.6546929635574713E+01    1.0398151825371649E+01    1.7708506998149012E+01
O    1.7258189718220642E+01    1.0955151834804809E+01    1.7935264703244943E+01
H    1.4180832468621967E+01    1.0149403939833773E+01    7.8127977513213107E+00
H    1.5052661089542791E+01    1.0676119893388448E+01    8.9917209596943160E+00
O    1.4958892276861054E+01    1.0730440004067967E+01    7.9665074550024082E+00
H    2.1975468101105133E+00    4.1125727857137537E+00    1.4461667122989285E+01
H    1.5559513538363587E+00    2.7528255372380022E+00    1.4858969141367890E+01
O    2.4021743183351716E+00    3.1367807842939097E+00    1.4635148260270272E+01
H    2.4118578615806316E+00    1.4413719895774971E+01    1.3099428225835874E+01
H    2.8950141702249770E+00    1.4433035691719365E+01    1.1543006299141412E+01
O    3.0490611096001410E+00    1.3978469956616408E+01    1.2409718404314006E+01
H    1.9731198131087822E+01    3.3179360402054301E+00    1.8796155879272586E+01
H    1.9645589092838485E+01    3.1666487601674262E+00    2.0385341382747505E+01
O    1.9122796659140967E+01    3.2517828752538440E+00    1.9557903804196133E+01
H    1.4785614978005366E+01    6.2567735501673671E-01    1.7703932744872560E+01
H    1.5787023159529351E+01    1.0243939405369296E+00    1.8810946688725029E+01
O    1.4965834538520941E+01    4.9367568785840288E-01    1.8656535479903702E+01
H    1.3916747297466547E-01    6.9948410982888607E+00    1.2253065108226492E+01
H    1.1438447030920049E+00    8.1671910836584480E+00    1.2551952663285828E+01
O    5.4052578436069099E-01    7.5288022003172896E+00    1.3025249537001203E+01
H    3.0995302761416061E+00    2.2033408072328453E+00    1.2316027381754711E+01
H    3.6277093943929843E+00    2.3948326261246913E+00    1.0949046940566401E+01
O    2.8530325035874506E+00    1.9933530068200362E+00    1.1414893219931871E+01
H    1.4761505211981389E+01    1.4499396119594943E+01    1.1571768023037349E+01
H    1.5148249442621823E+01    1.5031137095097078E+01    1.3029657547300872E+01
O    1.4652657871473703E+01    1.5267697467880536E+01    1.2164224992332874E+01
H    4.6227871629279642E+00    1.5338473699239081E+01    1.3264672571342771E+01
H    5.2674983093893415E+00    1.4815493661518040E+01    1.4662062419659454E+01
O    5.4521241022681091E+00    1.5040361592259922E+01    1.3721638324361818E+01
H    6.5858850909035427E-01    1.3085798031955214E+01    1.7157564666437320E+01
H    1.4436257854317935E+00    1.4166765329285349E+01    1.7830188498955422E+01
O    1.5946113413248220E+00    1.3408559158279346E+01    1.7146934509518058E+01
H    9.8767431420480467E-01    1.5763551148500222E+01    1.4696239396393555E+01
H    1.7626316822506616E+00    1.4490646341066654E+01    1.5227699362807822E+01
O    1.4205995076665281E+00    1.4939158902428520E+01    1.4434849165771009E+01
H    1.7488196383129846E+01    1.4496397205796264E+01    2.1493495360007955E+01
H    1.7712140788182104E+01    1.4195565255825302E+01    1.9804798300367235E+01
O    1.8149228548974886E+01    1.4454557431141394E+01    2.0721815390899121E+01
H    4.8571109563694526E+00    3.5524995700692283E+00    7.1721630191673249E+00
H    3.6389716389046556E+00    3.7872883223165363E+00    8.1901684235630317E+00
O    4.1217872827901658E+00    4.1506053588662306E+00    7.4311880612076235E+00
H    2.2277513503294224E+00    6.9297610187881498E+00    8.6685584299727907E+00
H    2.2598576263925545E+00    7.9251929949474569E+00    7.6741228676878430E+00
O    1.7225531748955909E+00    7.1245149773339058E+00    7.8549140638986392E+00
H   -3.2629368646554628E-02    2.5819223209099973E+00    1.8473919562154421E+01
H    5.8775173800165448E-01    1.1856730853036959E+00    1.8137310529752217E+01
O   -2.5885585605266870E-01    1.6923430321058783E+00    1.8057364253452679E+01
H    1.3195086470561824E+01    9.8720710758664669E+00    1.7586447749887441E+01
H    1.4402180529172663E+01    1.0827320157914802E+01    1.7064796967735756E+01
O    1.4167546245332387E+01    1.0026635535528087E+01    1.7607428496569206E+01
H    2.8873531876688223E+00    6.4004496088436600E+00    1.4599099660206306E+01
H    1.3892305315248954E+00    6.4057797372138285E+00    1.3898691679132265E+01
O    2.1726510472581446E+00    5.8681019254339830E+00    1.4185019140166133E+01
H    2.4581634193293787E+00    4.4640956152947169E+00    1.0224487536499616E+01
H    1.7157933785731880E+00    4.4452260841631670E+00    8.8675272651619732E+00
O    2.2624788386080645E+00    3.9397404881632530E+00    9.4754957840755978E+00
H    1.3040535992906808E+01    1.2820220898954123E+01    1.3217636587217262E+01
H    1.4113755660126710E+01    1.1852928243979653E+01    1.3727592421638196E+01
O    1.3301403576371799E+01    1.2382031429416829E+01    1.4019636235242766E+01
H    1.0850570697477582E+00    7.8625678847613099E+00    2.2184703091508258E+01
H    1.6404577605387323E+00    9.3939136479303844E+00    2.2439284656809129E+01
O    9.4805436518322639E-01    8.8309601783418508E+00    2.2030286286131275E+01
H    8.5797767202091766E+00    1.2764881799972500E+01    7.9671215790541838E+00
H    8.3745005340951266E+00    1.1520117467967825E+01    7.0454208978625124E+00
O    8.1184457751640267E+00    1.1822726026417950E+01    7.9563090250295447E+00
H    1.4343350181112049E+01    1.2332310775470585E+01    7.7561520751964208E+00
H    1.4835723649298648E+01    1.3629755812860123E+01    7.0847797213214516E+00
O    1.4319744065854653E+01    1.3336691296665606E+01    7.8519314267345166E+00
H    3.5284108464096651E+00    8.7223119020755604E+00    1.2930430448140555E+01
H    3.1885578118804383E+00    1.0164545389862527E+01    1.2280820916560229E+01
O    2.9071049426912889E+00    9.4704869827165812E+00    1.2957378182309595E+01
H    2.5250865439926340E+00    1.7265677500290233E+00    2.1470984278098722E+01
H    3.9751406825942071E+00    1.9327288326979992E+00    2.0542678874501735E+01
O    3.3797595713337572E+00    2.1924568023102387E+00    2.1302374714696523E+01
H    4.8394265142167212E+00    1.3460064070240168E+01    1.6577565228849352E+01
H    4.5862460204697486E+00    1.5175613271497358E+01    1.6609277116053839E+01
O    5.3170974316024822E+00    1.4385321295424983E+01    1.6580854058283329E+01
H   -1.0589840661338372E+00    8.0948235327097073E+00    1.3648859172532815E+01
H   -2.5581957487703351E+00    8.3509620333728147E+00    1.4034183963401871E+01
O   -1.6291001205254791E+00    8.5821620278058202E+00    1.4316659894545985E+01
H    1.5203101348219059E+01    9.5106935841851890E+00    2.0877936146674479E+01
H    1.4370138863410947E+01    1.0130379064993017E+01    1.9723276762930453E+01
O    1.4759539252944707E+01    1.0354757861443110E+01    2.0590933615762914E+01
H    1.3720149936124308E+01    4.2191761574512956E+00    1.8681317827622912E+01
H    1.3783412506843819E+01    5.3262105401227684E+00    1.7512354791728164E+01
O    1.3478161218673590E+01    4.4043507035747416E+00    1.7700619078691599E+01
H    1.2007129756920156E+01    6.3239674672408581E+00    2.1034130739894724E+01
H    1.2332183166941569E+01    5.6756548429593119E+00    2.2422342733722850E+01
O    1.2732455917602202E+01    5.9837756895492822E+00    2.1541919565765880E+01
H    1.2033176130627082E+01    9.9054923616999293E+00    1.5553814300336107E+01
H    1.2478007187690919E+01    1.0586001156748821E+01    1.4208312390390972E+01
O    1.2053830026747679E+01    9.7801567659594415E+00    1.4616245942876304E+01
H    1.5274978107244937E+01    1.7239091389160556E+01    2.1873589710624945E+01
H    1.4160618606867093E+01    1.6122930360317241E+01    2.1423069914137290E+01
O    1.4310889495716928E+01    1.6991121250871569E+01    2.1843049203891766E+01
H    8.9931457713130243E+00    2.0022692780573133E+00    9.8921515845866992E+00
H    9.8998171509636492E+00    3.1976997158035330E+00    9.4203110207477270E+00
O    9.4397293299041909E+00    2.7975269361084281E+00    1.0224590080837652E+01
H    1.4521160249455549E+00    1.3340592052768422E+01    2.1543307390206337E+01
H    2.8080034688537499E+00    1.3238350739207787E+01    2.0913815062592242E+01
O    2.2989442933510884E+00    1.2914650888824340E+01    2.1674779844334605E+01
H    1.3880113269285701E+01    1.3675902749980468E+01    2.1422515752411705E+01
H    1.4239261219166465E+01    1.4553485103971321E+01    2.0213742527981353E+01
O    1.3619217392797355E+01    1.4518273333353918E+01    2.0952454449145375E+01
H    1.4089660707387626E+01    3.1881981344890971E+00    2.0967101280393308E+01
H    1.3795925418895434E+01    4.7585594758690890E+00    2.1043875605249344E+01
O    1.4323569813981781E+01    4.0840873062378851E+00    2.0482213670622958E+01
H    1.0310608259273243E+01    2.9594948564225634E+00    1.7807202490892770E+01
H    1.1641441231774714E+01    3.4935671984062813E+00    1.7733134843086784E+01
O    1.1229581002173674E+01    2.6380834426632802E+00    1.7516611274865745E+01
H    8.0372226677476721E+00    1.2042076230349565E+01    1.6184362347732613E+01
H    9.6414864441787191E+00    1.1869958763059481E+01    1.5984367827504190E+01
O    8.8075635643572134E+00    1.1898111517229108E+01    1.5509544494011969E+01
H    5.3376163752743624E+00    1.0789412596455870E+00    7.5740791459381045E+00
H    5.9496085322766490E+00    2.2434922007357421E+00    8.6409965396912476E+00
O    6.0552501785730577E+00    1.8028720782375383E+00    7.7368948867934382E+00
H    3.4187480162597241E+00    1.0880311047461815E+01    8.2533356078117563E+00
H    4.3910411796960709E+00    1.2139725646569936E+01    8.6991024656141409E+00
O    3.4496842436235897E+00    1.1844811759092069E+01    8.5359170153457828E+00
H    9.1055502236835526E+00    1.5042139240016860E+01    1.2011892375128346E+01
H    1.0356751790975013E+01    1.5901155494372876E+01    1.2610955187774852E+01
O    9.8565944681406403E+00    1.5031491850969243E+01    1.2706801346341406E+01
H    3.2592931222642032E+00    1.5563695941847097E+01    7.0771820490885879E+00
H    3.6070878575448324E+00    1.5453413281284714E+01    8.6890552617071783E+00
O    3.9576124695406496E+00    1.5506503318147697E+01    7.7813340042705388E+00
H   -4.0875500490961486E-01    1.9419262460636921E+00    1.6269317553914139E+01
H   -6.7668260417547832E-01    2.3990521499482358E+00    1.4611348294086158E+01
O   -2.6505427359101347E-01    1.7207140786580826E+00    1.5289862868020377E+01
H    1.1045034739507539E+01    1.2398749161373114E+01    1.9120457428604762E+01
H    1.2018460802590434E+01    1.1359656404759178E+01    1.9755229266308323E+01
O    1.1300192427855668E+01    1.1454942818274894E+01    1.9175473339708201E+01
H   -2.9193331995918193E-01    8.6663980262347380E+00    1.9656255806295825E+01
H    9.6087891027478800E-01    9.2023676733876734E+00    2.0296346360492162E+01
O    5.9148860173873763E-01    9.0317057725967551E+00    1.9389678202518596E+01
H    1.2390096380943543E+01    8.3580699539917376E+00    1.0143863863594834E+01
H    1.3477310818927496E+01    7.5012308562814880E+00    1.1002451774697303E+01
O    1.3079164821596448E+01    7.6097220620874966E+00    1.0108720001447908E+01
H    1.7134984554987010E+01    2.6076138150868933E+00    1.0983480015521398E+01
H    1.8658354574788355E+01    2.8584641362210479E+00    1.1313084985139932E+01
O    1.7757237334648526E+01    3.2835651696602430E+00    1.1374000203844922E+01
H    1.1349074222323214E+00    6.3105703918504941E-01    2.2900106915838695E+01
H    9.5857807166513698E-01    4.5943469339058562E-01    2.1471512305647000E+01
O    1.0553166335822346E+00    1.2592907584367221E+00    2.2122606956695691E+01
H    7.7650153177113124E+00    1.5560711360002069E+00    7.4782272685065614E+00
H    9.2482908720404886E+00    1.9764269493143527E+00    7.2482960826605174E+00
O    8.7042723642570277E+00    1.1581635827877965E+00    7.5715785840693313E+00
H    1.5428402964422359E+01    9.3772056429287378E+00    1.0763044223626775E+01
H    1.5255382343415283E+01    1.0800823531644296E+01    1.1408441313010730E+01
O    1.5430028313655376E+01    1.0329686693328179E+01    1.0549319223714527E+01
H    1.4576238036882582E+01    7.9685840040897009E+00    1.7235458704419290E+01
H    1.5691223035226219E+01    6.9482357602853630E+00    1.7144774014303728E+01
O    1.4752043810142769E+01    6.9940477420385578E+00    1.7260416160488475E+01
H    1.6492156016948755E+01    6.5055993499633411E+00    1.0432981338032958E+01
H    1.5680313508503930E+01    6.6616464544872480E+00    1.1591653769184401E+01
O    1.6265465360119048E+01    7.1940060345743593E+00    1.1024223939136858E+01
H    1.2402100777373041E+01    5.6892036047818877E+00    1.3642305731596872E+01
H    1.3471587992302224E+01    5.1353074550873643E+00    1.4588747090335822E+01
O    1.2969606233456297E+01    5.9259002398845011E+00    1.4413204891439612E+01
H    5.7261161485973222E+00    3.5341626876403756E+00    1.5436416107703602E+01
H    6.5016439024048278E+00    2.1378435057370426E+00    1.5884005695937873E+01
O    5.6057799190139619E+00    2.5187219665437466E+00    1.5543936536989097E+01
H    1.3891390783319425E+01    3.5235545860507278E+00    1.6071556351641451E+01
H    1.3265974534114241E+01    3.0469464954510257E+00    1.4764670778574844E+01
O    1.4171541130430006E+01    3.0851423985154680E+00    1.5191925870971215E+01
H    1.0787367794889819E+01    1.1729281092665845E+01    7.7054014688484251E+00
H    1.1945922423099516E+01    1.1715395977428715E+01    6.8763065068652596E+00
O    1.1672800571255527E+01    1.1383014577441903E+01    7.7488828722689309E+00
H    1.9957372304100676E+00    4.7364669978293019E+00    1.6895172710078473E+01
H    2.9112182957326787E+00    3.6545383574676835E+00    1.6589377423951127E+01
O    2.7426819240336502E+00    4.2804797686377976E+00    1.7334820615797856E+01
H    1.7126819662649357E+01    8.2106804064719103E+00    1.5653824280395906E+01
H    1.7683176035325705E+01    7.0165217339302783E+00    1.6410222973041627E+01
O    1.7527140268697320E+01    7.9902211164888604E+00    1.6556374607358475E+01
H    7.8078855653676165E+00    1.1283300132357544E+01    2.0229124974276885E+01
H    7.5939546289604403E+00    1.2083696782665823E+01    1.8842167327703280E+01
O    7.5525909070150634E+00    1.1187093648172887E+01    1.9254161984170217E+01
H    5.9436773281992163E+00    2.4239670856574467E+00    1.3385733537831111E+01
H    6.2534093327521090E+00    9.4585495322194713E-01    1.3202917974702551E+01
O    6.2818139631127403E+00    1.7830495226868746E+00    1.2715492537995697E+01
H    1.6367294184047225E+01    7.0006684591767101E+00    2.0338266366508584E+01
H    1.5692977012767432E+01    7.6238813129063949E+00    1.9151843825719684E+01
O    1.6084488491641114E+01    7.8398603045041932E+00    2.0004491570569321E+01
H    5.0829330100094374E+00    1.0858227162379041E+01    1.6060104084390790E+01
H    3.6118512529960825E+00    1.1313328672353659E+01    1.6194313066061564E+01
O    4.4926307251435222E+00    1.1510343658416641E+01    1.6546336868678793E+01
H    3.4996708368184155E+00    2.0236683337523581E-01    2.2933946163846301E+01
H    3.2559028028707315E+00   -1.2809889242334915E+00    2.2619310409074089E+01
O    3.9269370163720527E+00   -5.2720673586105182E-01    2.2447702454507787E+01
H    1.9778932938655860E+00    1.0245263159637503E+01    1.5857524601652546E+01
H    2.4672110967474641E+00    1.0420777034132330E+01    1.4385017415487550E+01
O    2.1487875497304092E+00    1.0952627664270407E+01    1.5155577579755681E+01
H    1.8770718188933600E+01    1.4376737889935999E+01    7.5598847342500806E+00
H    1.7650448888279591E+01    1.4908898288650233E+01    8.5745080532500992E+00
O    1.8526511865260723E+01    1.5188518638976912E+01    8.1014362738564625E+00
H    1.1408861066894820E+01    2.3083156422921887E+00    1.5615952090110643E+01
H    1.0903360411131725E+01    2.2069031882747279E+00    1.4140989294853897E+01
O    1.1239798338339250E+01    2.8045205693447972E+00    1.4814030648402932E+01
H    6.8491862626908109E+00    1.4000009531346652E+01    1.6984509763674861E+01
H    8.0582547589415725E+00    1.4119834948652620E+01    1.7945391808220780E+01
O    7.5571115261951141E+00    1.3421161081490119E+01    1.7468029330365344E+01
H    1.1620364196385879E+01    5.1800151472490921E+00    1.1308267299701511E+01
H    1.1261408613176165E+01    4.3195527643161187E+00    1.2635686679161193E+01
O    1.1738755727578171E+01    5.1089579355023043E+00    1.2354584387994571E+01
H    1.1352932978099775E+00    1.1838063421998157E+00    7.7669265189479484E+00
H    1.5683430150083306E+00    2.5506573775501851E+00    8.6565456588123944E+00
O    1.1013592337148022E+00    2.2068771813399151E+00    7.8882375821325459E+00
H    8.3993491440784283E+00    1.6573593641027063E+01    1.8127744164941813E+01
H    8.5090687456378369E+00    1.5933298728950291E+01    1.9717475516556394E+01
O    8.5824023340698155E+00    1.5767217951409341E+01    1.8710194534469974E+01
H    1.4060114921579828E+01    1.6149707148274697E+00    8.1238475868395099E+00
H    1.2751607595937717E+01    6.8196818082513033E-01    8.3708337346618578E+00
O    1.3085070883036588E+01    1.7027350347935117E+00    8.3235449371253818E+00
H    5.0603509631527652E+00    9.0053381000512065E+00    2.0433257120200818E+01
H    4.3946541959963694E+00    9.6095271280226129E+00    2.1823956474922753E+01
O    4.8442003180956936E+00    8.7955194422994829E+00    2.1409553543448322E+01
H    4.0286868715178157E+00    1.2043004608572170E+01    1.9468120913577827E+01
H    3.1053575460049645E+00    1.2985220914316173E+01    1.8638224653642901E+01
O    3.6645581082984982E+00    1.2938967478695547E+01    1.9428496568039769E+01
H    1.3598794182797787E+01    5.1704721307076351E+00    1.2026616223927716E+01
H    1.4549440136881250E+01    4.2847812924741682E+00    1.1291311127464766E+01
O    1.4533240400379235E+01    5.1238168993405866E+00    1.1782768334391804E+01
H    1.1564213136285163E+01    1.6281241047801476E+01    1.7236159854961819E+01
H    1.0798835506131123E+01    1.5201064992824294E+01    1.6390292096805215E+01