 # Version information for this restart file 
 # current date 2022-07-25 08:17:08.921
 # current working dir /rds/general/user/jj1921/home/junction/MD/AIMD
 # Program compiled at                              Thu 12 Jul 13:52:12 BST 2018
 # Program compiled on                                      build-2.hpc.ic.ac.uk
 # Program compiled for                                       Linux-x86-64-intel
 # Source code revision number                                         svn:18464
 &GLOBAL
   PRINT_LEVEL  LOW
   PROJECT_NAME AIMD
   RUN_TYPE  MD
 &END GLOBAL
 &MOTION
   &MD
     ENSEMBLE  NVT
     STEPS  100000
     TIMESTEP     4.9999999999999989E-01
     STEP_START_VAL  10040
     TIME_START_VAL     5.0199999999994552E+03
     ECONS_START_VAL     5.3102998044228311E+00
     TEMPERATURE     3.0000000000000000E+02
     TEMP_TOL     4.0000000000000000E+01
     &THERMOSTAT
       TYPE  CSVR
       &CSVR
         TIMECON     9.9999999999999955E+02
         &THERMOSTAT_ENERGY
               7.7576243591077088E+00
         &END THERMOSTAT_ENERGY
         &RNG_INIT
Wiener process for Thermostat # 1        1 F T F  -9.6358041591291954E-01        3264360594.0         572142655.0        2686222213.0        3900907339.0         108051072.0         275775914.0             12345.0             12345.0             12345.0             12345.0             12345.0             12345.0             12345.0             12345.0             12345.0             12345.0             12345.0             12345.0
         &END RNG_INIT
       &END CSVR
     &END THERMOSTAT
     &AVERAGES  T
       &RESTART_AVERAGES
         ITIMES_START  1
         AVECPU     9.6193197051106310E+01
         AVEHUGONIOT     0.0000000000000000E+00
         AVETEMP_BARO     0.0000000000000000E+00
         AVEPOT    -9.2479516109977649E+03
         AVEKIN     9.6048485681984841E-01
         AVETEMP     3.0964447930413053E+02
         AVEKIN_QM     0.0000000000000000E+00
         AVETEMP_QM     0.0000000000000000E+00
         AVEVOL     5.6045166857477212E+04
         AVECELL_A     3.3659572082089788E+01
         AVECELL_B     2.9150044503600711E+01
         AVECELL_C     5.7120283452287559E+01
         AVEALPHA     9.0000000000000000E+01
         AVEBETA     9.0000000000000000E+01
         AVEGAMMA     9.0000000000000000E+01
         AVE_ECONS    -4.2303024648634503E+06
         AVE_PRESS     0.0000000000000000E+00
         AVE_PXX     0.0000000000000000E+00
       &END RESTART_AVERAGES
     &END AVERAGES
     &PRINT
       &ENERGY  ON
         &EACH
           MD  1
         &END EACH
       &END ENERGY
     &END PRINT
   &END MD
   &CONSTRAINT
     &FIXED_ATOMS
       COMPONENTS_TO_FIX  XYZ
       LIST  499..534
     &END FIXED_ATOMS
   &END CONSTRAINT
   &PRINT
     &TRAJECTORY  ON
       &EACH
         MD  1
       &END EACH
     &END TRAJECTORY
     &VELOCITIES  ON
       &EACH
         MD  1
       &END EACH
     &END VELOCITIES
     &STRESS  ON
       &EACH
         MD  1
       &END EACH
     &END STRESS
     &RESTART_HISTORY  OFF
     &END RESTART_HISTORY
   &END PRINT
 &END MOTION
 &FORCE_EVAL
   METHOD  QS
   &DFT
     BASIS_SET_FILE_NAME /rds/general/user/jj1921/home/BASIS_COM_MOLOPT_GTH
     POTENTIAL_FILE_NAME /rds/general/user/jj1921/home/GTH_POTENTIALS
     &SCF
       MAX_SCF  30
       EPS_SCF     9.9999999999999995E-07
       SCF_GUESS  RESTART
       &OT  T
         MINIMIZER  DIIS
         SAFE_DIIS  F
         STEPSIZE     1.0000000000000000E-02
         PRECONDITIONER  FULL_ALL
         ENERGY_GAP     1.0000000000000000E-03
       &END OT
       &OUTER_SCF  T
         EPS_SCF     9.9999999999999995E-07
         MAX_SCF  200
       &END OUTER_SCF
       &MIXING  T
         METHOD  DIRECT_P_MIXING
         ALPHA     2.9999999999999999E-01
       &END MIXING
       &PRINT
         &RESTART_HISTORY  SILENT
           BACKUP_COPIES  3
           &EACH
           &END EACH
         &END RESTART_HISTORY
       &END PRINT
     &END SCF
     &QS
       EPS_DEFAULT     9.9999999999999994E-12
       EXTRAPOLATION  ASPC
       EXTRAPOLATION_ORDER  0
       METHOD  GPW
     &END QS
     &MGRID
       NGRIDS  4
       CUTOFF     5.0000000000000000E+02
       &RS_GRID
         DISTRIBUTION_TYPE  REPLICATED
       &END RS_GRID
     &END MGRID
     &XC
       DENSITY_CUTOFF     1.0000000000000000E-10
       GRADIENT_CUTOFF     1.0000000000000000E-10
       TAU_CUTOFF     1.0000000000000000E-10
       &XC_FUNCTIONAL  NO_SHORTCUT
         &PBE  T
         &END PBE
       &END XC_FUNCTIONAL
       &VDW_POTENTIAL
         POTENTIAL_TYPE  PAIR_POTENTIAL
         &PAIR_POTENTIAL
           R_CUTOFF     8.0000000000000000E+00
           TYPE  DFTD3
           PARAMETER_FILE_NAME dftd3.dat
           REFERENCE_FUNCTIONAL PBE
           EPS_CN     1.0000000000000000E-02
           CALCULATE_C9_TERM  T
           REFERENCE_C9_TERM  T
           LONG_RANGE_CORRECTION  T
         &END PAIR_POTENTIAL
       &END VDW_POTENTIAL
     &END XC
   &END DFT
   &SUBSYS
     &CELL
       A     1.7811878396732908E+01    0.0000000000000000E+00    0.0000000000000000E+00
       B     0.0000000000000000E+00    1.5425539180689931E+01    0.0000000000000000E+00
       C     0.0000000000000000E+00    0.0000000000000000E+00    3.0226752151153697E+01
       PERIODIC  XYZ
       MULTIPLE_UNIT_CELL  1 1 1
     &END CELL
     &COORD
H    1.1259281029997114E+01   -1.3053281200156259E+00    2.2135390846164380E+01
H    9.7820942939303777E+00   -7.6302316391957592E-01    2.1954545042980829E+01
O    1.0672158383247110E+01   -5.7370849888007003E-01    2.2419657131879944E+01
H    9.1929266340199707E+00    1.5309536939181125E+01    7.3868563712837192E+00
H    8.2967985713860468E+00    1.6402689998972797E+01    8.1692770453384576E+00
O    8.4727104530312491E+00    1.5423163195335885E+01    7.9848597987532353E+00
H    5.6266404167633812E+00    1.5660426851742152E+01    1.0747750142168154E+01
H    5.9105850002069689E+00    1.4572187543538277E+01    9.5233610194584983E+00
O    5.9406946818568285E+00    1.4763377521997429E+01    1.0493568647831728E+01
H    2.5580107130206082E+00    5.8425371927181260E+00    1.3175583517728766E+01
H    4.0370447988867513E+00    5.4949067476693836E+00    1.2741463971038828E+01
O    3.1096356476838309E+00    5.5017050041715523E+00    1.2449190294512633E+01
H    1.5427809083597218E+01    6.4194565560333841E+00    9.4315998857553858E+00
H    1.6021547626328225E+01    5.6417245663169533E+00    8.1545024650737776E+00
O    1.5557430407860538E+01    6.4992006647769731E+00    8.4014128299520543E+00
H    9.5437461986334551E+00    1.3538869055143641E+01    1.0949076144921895E+01
H    9.6018796846167564E+00    1.1909788891869589E+01    1.0988836428308485E+01
O    1.0172246654409927E+01    1.2745860720839060E+01    1.0853114627296966E+01
H   -9.2777512958675168E-01    1.0637699145698162E+01    2.1301067064250372E+01
H   -1.5889633660805300E-01    1.0021473204385300E+01    2.2541671969466123E+01
O   -9.6363613747213278E-02    1.0710080401448311E+01    2.1774426144247183E+01
H    6.1575367778481240E+00    9.1280766320390079E+00    9.0485087967436364E+00
H    5.6365959338468059E+00    8.3789925467317339E+00    1.0271689413019363E+01
O    5.6661301654012481E+00    8.3553004467002854E+00    9.2976582653569668E+00
H    8.9055415416762589E+00    1.0434761135035030E+01    2.1907672109437080E+01
H    8.8100585412317525E+00    1.1059391489954649E+01    2.0409506806061298E+01
O    9.2953335768874883E+00    1.1110371617838208E+01    2.1273762177718336E+01
H    5.5429799810165514E+00    1.5518952602686390E+01    2.2607037773578721E+01
H    6.7086380463341939E+00    1.6488380899289339E+01    2.2414088227950415E+01
O    6.0677622811795899E+00    1.6019697812400324E+01    2.1875713427395809E+01
H    1.3940306485128978E+01    5.4409783582455573E-01    1.4725767052602491E+01
H    1.5484037471519901E+01    1.5614351777516866E-01    1.4809441793122279E+01
O    1.4597295802645597E+01   -5.6459943042135807E-02    1.5167653570478565E+01
H    5.1903937628847023E+00    5.4411747711381269E+00    8.2660383052816364E+00
H    5.8032804061108054E+00    6.9163138750713351E+00    8.7644272320670549E+00
O    5.9928875801434947E+00    5.9486412284556547E+00    8.5850236110992313E+00
H    7.1678140888769066E+00    1.1739607445224530E+01    8.4203444335811835E+00
H    6.3706225191183670E+00    1.1546722044468524E+01    9.8416963907427828E+00
O    6.9625751337831359E+00    1.1109853145916384E+01    9.1944673771932326E+00
H   -4.2792615942169870E-01    8.2989362474774868E+00    1.6426166487466183E+01
H    1.4531603640924007E-02    9.6451535455939013E+00    1.7113257438409462E+01
O    3.1498295148229216E-01    8.9882558577895519E+00    1.6393547528957981E+01
H    1.7687488970420805E+01    9.7769892228924942E+00    7.4851816765247170E+00
H    1.6320097611600676E+01    1.0536113742474258E+01    7.4818971053740828E+00
O    1.7307763030257561E+01    1.0664548957616260E+01    7.3211658598008027E+00
H    1.1972574144282735E+01    2.6519869557325664E+00    7.3333260253009271E+00
H    1.1147125683721475E+01    1.2464223752366197E+00    7.6290450717784877E+00
O    1.1067609240793711E+01    2.1720178414251312E+00    7.4056738634683299E+00
H    2.2254778945644191E+00    6.0398851612224727E+00    1.1161684596586138E+01
H    1.6296589498105796E+00    7.4907907630411685E+00    1.0721595981767059E+01
O    1.6015344514768237E+00    6.5532664590479124E+00    1.0520318940758623E+01
H    3.2108496675078078E+00    8.1922312989991113E+00    1.6161435289138112E+01
H    1.5765784019769935E+00    8.1698549539334167E+00    1.6390339189572671E+01
O    2.3783880584086763E+00    7.7190131505772444E+00    1.6042797568741427E+01
H    9.3783277010949693E+00    1.0140535399790586E+01    1.4735828341696601E+01
H    9.1337001732572212E+00    1.1546925589718523E+01    1.5106668938142349E+01
O    8.6189300777463043E+00    1.0677031638349497E+01    1.5048645020323631E+01
H    1.3070530882744563E+01   -3.2485378529471087E+00    1.8882633952297642E+01
H    1.2831063673104699E+01   -2.9592980583841442E+00    1.7427837372890586E+01
O    1.3278186882006869E+01   -3.6333258145388951E+00    1.8002018403528812E+01
H    1.1860037765236708E+01    5.1595466807909869E+00    1.6266383319631760E+01
H    1.0557243649970502E+01    6.0538806375161807E+00    1.6143951928267395E+01
O    1.0859292579283039E+01    5.1723266589544474E+00    1.6464595356215426E+01
H    1.7351028220036120E+01    7.5992238222424895E+00    8.0082816459923265E+00
H    1.8822607491831370E+01    7.8757524421742833E+00    8.3339629369821449E+00
O    1.7915917485316697E+01    8.3038209203661406E+00    8.3847965476769879E+00
H    1.1537382747951654E+01    1.7491165292439101E+00    2.1056429353439526E+01
H    1.1250220880764525E+01    9.5098646730510950E-01    2.2357310836591040E+01
O    1.1530512551308858E+01    1.9355783250618870E+00    2.2020897618936353E+01
H    1.7549891288470050E+01    1.1121030622963248E+01    9.2082019061362761E+00
H    1.7616536205569801E+01    1.0617184535866540E+01    1.0626315693244441E+01
O    1.7747303051687624E+01    1.1462595503939992E+01    1.0104415718096206E+01
H    6.3672009603280166E+00    5.3176851976049804E+00    1.2083693021684448E+01
H    6.2443482547621807E+00    5.2442232813566179E+00    1.3539804174007612E+01
O    5.6816868107562497E+00    5.5036503324885837E+00    1.2754782610421243E+01
H    1.9248903966832295E+01    4.8888062679206135E+00    2.2646651418551905E+01
H    1.8637025056870637E+01    4.5893720324680620E+00    2.1328866244385566E+01
O    1.8421151082961828E+01    4.4404822574260381E+00    2.2309504140458866E+01
H    6.1848251252578947E+00    1.4240887340207507E+01    1.9602285739277892E+01
H    5.5780032074727348E+00    1.3347209034944335E+01    2.0719159946645945E+01
O    5.7667844341880379E+00    1.3371279261076904E+01    1.9804357924863080E+01
H    1.6643360080147264E+01    1.7381014284968078E+01    1.1270893970952349E+01
H    1.5958547694500895E+01    1.6057029241647847E+01    1.1331419059779703E+01
O    1.6911085797837345E+01    1.6408109329166816E+01    1.1284155514007475E+01
H    1.6335017109583031E+01    1.0810334067670743E+01    1.8215148555154052E+01
H    1.6051590344094834E+01    1.1099248858747490E+01    1.6558343407501464E+01
O    1.6749856443498395E+01    1.1010445443635406E+01    1.7323313553394758E+01
H    1.4214901518527252E+01    1.0095337252472316E+01    6.8511819913164436E+00
H    1.4407705324847036E+01    9.7883079854476716E+00    8.4415079201844900E+00
O    1.4567427547463332E+01    1.0412893889188140E+01    7.6942779953049163E+00
H    1.5329989684709060E+00    3.4161863963535191E+00    1.4921028086922361E+01
H    1.1952390762604916E+00    5.0610528409570916E+00    1.5066210522491717E+01
O    1.1913366016541944E+00    4.1521889925568090E+00    1.5528548765276229E+01
H    1.2431665329353727E+00    1.3677237611577461E+01    1.3658307154893734E+01
H    2.0100282178327422E+00    1.4306416663169864E+01    1.2449008884904933E+01
O    2.1462663984165369E+00    1.3781926163080808E+01    1.3291185481026568E+01
H    1.9376329418637013E+01    4.4025865943741316E+00    1.9251688946860043E+01
H    1.9906475341642288E+01    3.3747612118906476E+00    2.0189341016734883E+01
O    1.9031576626407919E+01    3.8404864669283367E+00    1.9957807453157905E+01
H    1.4234399290892092E+01   -8.6083329041790557E-02    1.6920112827571440E+01
H    1.5486369119044168E+01   -2.3929585357675229E-01    1.7844918292871775E+01
O    1.4538938610869737E+01   -2.7999603586274291E-01    1.7862401353995050E+01
H   -1.4231127297984090E+00    6.0928309351297720E+00    1.2467845388634489E+01
H   -9.1107212380686731E-01    7.5193327791663487E+00    1.2267658208529093E+01
O   -1.0486808817919544E+00    6.8283668108623896E+00    1.3055013147379231E+01
H    1.1741588388574118E+00    1.3409353284890517E+00    1.4270633010865605E+01
H    2.6730793546997851E+00    1.3915967949507879E+00    1.3817527191037870E+01
O    1.8402105276423644E+00    1.9011509609331245E+00    1.3850994283086409E+01
H    1.4868641307643459E+01    1.4327014645419595E+01    1.0895576829431045E+01
H    1.3746989656628687E+01    1.4904425947516263E+01    1.2010711650574047E+01
O    1.4441861218715969E+01    1.5168417209366140E+01    1.1348830572754672E+01
H    5.0202737452150856E+00    1.2955454798089484E+01    1.3306846255928969E+01
H    5.1813092443800377E+00    1.3256310619554663E+01    1.4874600296087179E+01
O    5.3405948821484266E+00    1.3597166814395399E+01    1.3990180461366240E+01
H   -2.0907894102606098E-01    1.2328214540355198E+01    1.7305035441163827E+01
H   -4.1228251064435428E-01    1.3768537894907801E+01    1.7828836406061583E+01
O    1.7402958729314499E-01    1.3286391380815084E+01    1.7198618977475260E+01
H   -2.1216699197600189E-01    1.4847417923809420E+01    1.4663008052091792E+01
H    2.5785370558870729E-02    1.3410137039348212E+01    1.5492734899589406E+01
O   -1.1495601801500485E-01    1.3839724936987915E+01    1.4574658510933350E+01
H    1.7227114794403995E+01    1.3697418633732781E+01    2.2857941077136147E+01
H    1.7649856273615299E+01    1.2257221950634712E+01    2.2204276207887592E+01
O    1.7762922472010150E+01    1.3266210152038020E+01    2.2157469612708930E+01
H    4.2373429545736876E+00    4.0949876907637108E+00    6.8564232428782281E+00
H    3.5087045636812126E+00    3.7211924159402394E+00    8.3751515127105325E+00
O    3.9909892687103814E+00    4.3918920450802643E+00    7.8156757298902804E+00
H    1.7776667168082718E+00    6.0523138824220037E+00    9.2447364666251755E+00
H    2.4845348560311034E+00    5.5067686646411937E+00    7.8085337206744025E+00
O    1.5952285109845394E+00    5.7830750192813989E+00    8.2319914615325782E+00
H   -1.1367629171609015E+00    1.8935947201630661E+00    1.8145760589337453E+01
H   -3.0692249267771654E-01    6.5884493132388966E-01    1.8115082382231197E+01
O   -9.8838619694691787E-01    1.1156875057505047E+00    1.7540685911829854E+01
H    1.2964808601422531E+01    8.2638158125488062E+00    1.6545289498936668E+01
H    1.3754659277001474E+01    6.8052823975730536E+00    1.6312395940093914E+01
O    1.3620407303094471E+01    7.5425906639641047E+00    1.6893597466546300E+01
H    1.5938449575533662E+00    7.0612270701880613E+00    1.4733102057376861E+01
H    3.0114792147877595E-01    6.4086513371475924E+00    1.3639894027945152E+01
O    1.1982077111589806E+00    6.2789854868732426E+00    1.4159398158126885E+01
H    3.8165124130545069E+00    2.2660052621777385E+00    9.7914988261632541E+00
H    2.5527729275483741E+00    3.0141228651824461E+00    1.0295949781252951E+01
O    3.0199866333007690E+00    2.7284001333948154E+00    9.4847995243901373E+00
H    1.1646554361300209E+01    1.2332951172683607E+01    1.1604880006837732E+01
H    1.3144545466458316E+01    1.1792410600226322E+01    1.2150595217190792E+01
O    1.2189747649751304E+01    1.2055569674487552E+01    1.2434984408915613E+01
H    1.9431881704172091E+00    7.6312048669787167E+00    2.2821719028370733E+01
H    2.1470337372045147E+00    9.2214247417149888E+00    2.2820146873781646E+01
O    1.5651325070198059E+00    8.5144073789022805E+00    2.3123759411921824E+01
H    7.7368065617454640E+00    1.4007975148282213E+01    7.6373768602741894E+00
H    8.7526621011270258E+00    1.2801990125746919E+01    7.4894966422533447E+00
O    7.7245311751842873E+00    1.2997405173956791E+01    7.4603098968079458E+00
H    1.4037993721310359E+01    1.2033861005327456E+01    7.7956496084230187E+00
H    1.4537769838516128E+01    1.3192738881236851E+01    6.8709805167987028E+00
O    1.4225516746983702E+01    1.3046430403839310E+01    7.8078597382648356E+00
H    3.6823153302119422E+00    8.5689204430159567E+00    1.1996106233202147E+01
H    2.7674418449451572E+00    9.8293873946706913E+00    1.1768654630633419E+01
O    2.7538947710133321E+00    8.9008678022370518E+00    1.2078943342734449E+01
H    3.3217418037906339E+00    2.0480782135481079E+00    2.1259727261668058E+01
H    3.6799748243424064E+00    2.3564696919077495E+00    1.9666536464495863E+01
O    3.7497148000773883E+00    2.6877530174790127E+00    2.0573948127430910E+01
H    3.5727286111602226E+00    1.4726206769150572E+01    1.8301537272087103E+01
H    4.7727181104685910E+00    1.5726990428579965E+01    1.8303786686648785E+01
O    4.1988430094738147E+00    1.5195325898600425E+01    1.7695811142824368E+01
H   -2.2355470926499788E+00    8.2815876612330435E+00    1.4016995783343718E+01
H   -2.8783608341973448E+00    9.5193370318813919E+00    1.4651987719596814E+01
O   -2.9175418287554673E+00    8.9596123070053952E+00    1.3888481268128579E+01
H    1.4243891887926287E+01    6.0613764324854005E+00    1.9697191771858488E+01
H    1.3489142402823020E+01    6.9588840109258676E+00    1.8734613332908975E+01
O    1.3666523505499136E+01    6.8447225910988028E+00    1.9688875431682202E+01
H    1.3730900983900570E+01    1.8668159109286748E+00    1.8318459014273824E+01
H    1.4146133788252042E+01    3.3444635814208112E+00    1.8394251312706732E+01
O    1.3488174409855773E+01    2.7251628170462538E+00    1.7878856399724672E+01
H    1.2451661663259378E+01    4.3939372240078400E+00    2.2277808224365458E+01
H    1.2416276209599841E+01    2.9043570788972914E+00    2.2541973137702207E+01
O    1.3072580840569911E+01    3.6973695474157502E+00    2.2743967469165124E+01
H    1.1628941107565904E+01    1.0040544923780191E+01    1.5129517504984607E+01
H    1.1499802734392478E+01    1.1003166145453179E+01    1.3726744744847537E+01
O    1.1348084425076459E+01    1.0118295580035094E+01    1.4155980649772003E+01
H    1.4859778136306883E+01    1.4869529770339774E+01    2.3006342910243148E+01
H    1.3917964113572902E+01    1.4107933770285650E+01    2.2044551170494007E+01
O    1.4710803798483708E+01    1.4774052454532368E+01    2.2061353092504131E+01
H    9.7002906834851235E+00    3.3236621238281283E+00    8.8333072058860420E+00
H    1.0609709267411681E+01    4.5285007630108272E+00    9.4858100104243643E+00
O    9.8136142214728093E+00    3.9177689736131516E+00    9.6173007613555868E+00
H    1.3235879623812137E+00    1.3670118955455765E+01    2.1605645139114397E+01
H    2.3431638919449504E+00    1.3867665130115608E+01    2.0426630610229907E+01
O    2.2687433410796962E+00    1.3912348763583770E+01    2.1410828198441926E+01
H    1.5008920191297060E+01    1.0160255837720227E+01    2.0138525704389203E+01
H    1.5501976159069610E+01    1.1656504837924087E+01    1.9760266400537631E+01
O    1.5814212923697458E+01    1.0674186531406216E+01    1.9851127823652021E+01
H    1.4740374549950364E+01    1.0549570948275129E+00    2.1788540437806706E+01
H    1.4416697341684163E+01    2.6251592943767559E+00    2.2185556345511245E+01
O    1.5124091529116635E+01    1.9737236333416559E+00    2.1965787977853427E+01
H    9.9210829568666430E+00    9.8445444401970006E-01    1.9343938181409484E+01
H    1.1080759878474616E+01    2.1124631688380435E+00    1.9088795314187728E+01
O    1.0907136552580484E+01    1.1992624636166933E+00    1.9240619759793375E+01
H    9.3270374141114925E+00    1.3300002671369196E+01    1.6104100964420276E+01
H    9.1895245520927240E+00    1.3503352398603687E+01    1.4462361897747648E+01
O    9.7779754607781779E+00    1.3077462883229506E+01    1.5213474609886857E+01
H    4.8813609615303619E+00    8.9490037863960969E-01    6.6295249182383511E+00
H    3.8863156459810053E+00    5.9690295700329210E-01    7.8308146606764444E+00
O    4.6193225895319960E+00    1.1842916618617902E+00    7.5515392147066436E+00
H    2.9275726781385272E+00    1.0731006213770105E+01    8.3819474871862312E+00
H    3.5754601387871792E+00    1.2176340657240344E+01    8.5048789174501245E+00
O    2.7140208950913141E+00    1.1670265084598300E+01    8.5812748087294324E+00
H    7.9159256790133004E+00    1.4945413309093224E+01    1.0809853745110621E+01
H    9.3199065011287203E+00    1.5776690323616650E+01    1.0601824207443769E+01
O    8.7850502356832845E+00    1.5035061314310536E+01    1.1150608145803268E+01
H    1.9125333937217894E+00    1.4814657181526290E+01    7.6467998745577113E+00
H    2.3824554738295838E+00    1.5172959449942445E+01    9.1703728491936225E+00
O    2.6044455301807807E+00    1.5074209358939171E+01    8.2141808522825919E+00
H   -4.6031270685676490E-01    1.3087794741209648E+00    1.5974545147500240E+01
H   -8.9126578269745826E-01    1.9904243767906418E+00    1.4478899547327847E+01
O   -4.7377236889611385E-01    1.1246120375048831E+00    1.4920741722845495E+01
H    6.9094847104051444E+00    1.2245924452095066E+01    1.9450045254184008E+01
H    6.9766160160381601E+00    1.0862009162889017E+01    1.8631264691894931E+01
O    7.4724495202316197E+00    1.1477741181993327E+01    1.9253661484422320E+01
H    4.9382535487438262E-01    8.7001659337736079E+00    1.9613148950184915E+01
H    9.5691817687523029E-01    9.7239465910701739E+00    2.0621252116534212E+01
O    1.1367877201977783E+00    9.4426924221222635E+00    1.9704754595122218E+01
H    1.1879477714176600E+01    7.8701613458197190E+00    1.0653764788104834E+01
H    1.2815536825645747E+01    7.1384359365276877E+00    1.1502016772751634E+01
O    1.2628840649498649E+01    7.2415206649576751E+00    1.0566854617281740E+01
H    1.9481140603429388E+01    2.6340872600316141E+00    1.2511932310732860E+01
H    2.0071466588275477E+01    4.0481857822776703E+00    1.2150117922732518E+01
O    1.9449218373417050E+01    3.3427625799182379E+00    1.1792035709146372E+01
H    2.5828902227070141E+00    1.6089761816070777E-01    2.2307479177993589E+01
H    1.6245086207468407E+00    1.3836348613180718E+00    2.2493769064754730E+01
O    2.5545601859756171E+00    1.1105490677104719E+00    2.2191944125247907E+01
H    6.3723481388046457E+00    1.9251516162345499E+00    7.7698066637542382E+00
H    7.0103153564857044E+00    2.6609528763515762E+00    9.1115635743449506E+00
O    7.2296906189819765E+00    2.3004411122071522E+00    8.1719590557465889E+00
H    1.3766232241893739E+01    8.2766072931967454E+00    1.0130074698785274E+01
H    1.4337769128269914E+01    9.6995596267567823E+00    1.0732369789964654E+01
O    1.4389559245561387E+01    9.0513074197685164E+00    9.9368743731236950E+00
H    1.5464373048487554E+01    4.7383766038379269E+00    1.7921669622859348E+01
H    1.5914508866733284E+01    4.1891165466013041E+00    1.9284419506974171E+01
O    1.5126092423328755E+01    4.6074509639456842E+00    1.8851852482678034E+01
H    1.6198099460585922E+01    4.8488288458114717E+00    1.0768451494214927E+01
H    1.4669107170781816E+01    4.8295842475225728E+00    1.1261791885676129E+01
O    1.5423216196903230E+01    5.4592833228518414E+00    1.0966425992682879E+01
H    1.2828615106419090E+01    6.0858801437411190E+00    1.4433289902700627E+01
H    1.3269437672357196E+01    4.6133741329986497E+00    1.5009339770949255E+01
O    1.3374405844960719E+01    5.5785085309575351E+00    1.5142721160747840E+01
H    6.2369326596448067E+00    2.6921387327976904E+00    1.6022026652246961E+01
H    6.9330824277150711E+00    1.4092756557399235E+00    1.6187164445885056E+01
O    6.0264809328528806E+00    1.7261893032663866E+00    1.6080487876190091E+01
H    1.3396521477016321E+01    2.5605902026042680E+00    1.6186699188352563E+01
H    1.2420696281454662E+01    2.3141236931517426E+00    1.5006611229725639E+01
O    1.3293098349537628E+01    2.6619920490685698E+00    1.5234722651552191E+01
H    1.2033483941662229E+01    9.8673685417448596E+00    8.8956258722003145E+00
H    1.1830114546583866E+01    9.4967727177368335E+00    7.5468174305831095E+00
O    1.1387299308996520E+01    1.0009125621935784E+01    8.1870468822797200E+00
H    2.2772135636948212E+00    6.3038052130827973E+00    1.7641709088997104E+01
H    1.9560800569464913E+00    4.7983520004095457E+00    1.7075742092355995E+01
O    2.4227981816669493E+00    5.2988307941055446E+00    1.7834132033997196E+01
H    1.5356092535239810E+01    7.6671244447846734E+00    1.6747752385869440E+01
H    1.6076914884246406E+01    6.2506606933587747E+00    1.6447030560356456E+01
O    1.6223388510479030E+01    7.1376637530325491E+00    1.6793311002076997E+01
H    7.7151358574467990E+00    8.9232314049624719E+00    1.7339775337557651E+01
H    7.6732671535403778E+00    1.0230636519521042E+01    1.6400055117408762E+01
O    7.1650056097375661E+00    9.7192157217310715E+00    1.7079676077053598E+01
H    5.2473782864353922E+00    1.3345782048644765E+00    1.4599800260632076E+01
H    4.4912529122692328E+00    6.3091424649600991E-02    1.4049053813601207E+01
O    4.5059831014616876E+00    1.0326685628798260E+00    1.3928541032556446E+01
H    1.6914018438602938E+01    7.2109722410730059E+00    1.8832215372162235E+01
H    1.6917097799190625E+01    6.8130860957645627E+00    2.0203457905836014E+01
O    1.7513729802032433E+01    7.3146426079481675E+00    1.9581144338233489E+01
H    4.3041514527698475E+00    1.0492333510635600E+01    1.4682757939914117E+01
H    2.8189128777553720E+00    1.0229057085845154E+01    1.4643435641697790E+01
O    3.4679846877137801E+00    1.0772488623069092E+01    1.5150678528623782E+01
H    4.9084434274298179E+00   -2.7333081446429919E+00    2.2855046718314266E+01
H    3.7669956542224687E+00   -1.8292830680415382E+00    2.2159634259530947E+01
O    4.7951753641492125E+00   -1.8675960273919228E+00    2.2328947618481639E+01
H    5.8863053925316289E-01    9.7553029493201660E+00    1.4850164140952655E+01
H    1.2375706325284348E+00    9.3673141075959201E+00    1.3413879922145684E+01
O    8.9229319093571924E-01    1.0068748625568098E+01    1.3937425240640795E+01
H    1.6591559556007809E+01    1.4682865758911349E+01    8.5250969010441562E+00
H    1.6975379072300971E+01    1.5841172610919042E+01    9.6115801130221339E+00
O    1.6999216979725816E+01    1.5620146354968876E+01    8.5908937943195056E+00
H    1.0709558954314534E+01    1.3019372289360320E+00    1.2938300790609066E+01
H    1.1671679009660300E+01    2.9115354020084988E-01    1.3556097350871685E+01
O    1.1267058197929254E+01    1.1844964827813906E+00    1.3716194242698798E+01
H    5.1660108691170921E+00    1.4112704187391680E+01    1.6983975129658070E+01
H    6.6462085035560747E+00    1.3501185850796917E+01    1.6941521053320834E+01
O    5.7130442225892928E+00    1.3309381425348775E+01    1.6671051411348717E+01
H    1.0662136407202610E+01    5.3947309908339962E+00    1.2175925202445123E+01
H    1.0272963712701273E+01    4.0365632674094982E+00    1.1581978477659366E+01
O    1.0751368098100679E+01    4.4508358247852442E+00    1.2359968625070410E+01
H    2.1697044590941097E-01    1.3043361681107239E+00    7.8856329611623694E+00
H    1.6322852963248573E+00    2.1730429252859302E+00    8.0305053190242681E+00
O    6.1057741815406952E-01    2.2383850108914003E+00    7.8402687079245403E+00
H    7.8049619783338953E+00    1.5989386828516574E+01    1.8805160829385525E+01
H    8.7761142900253937E+00    1.6387441369622792E+01    1.7554935466187221E+01
O    8.6927699081836867E+00    1.5827294668731556E+01    1.8410606703566611E+01
H    1.2802564721543774E+01   -1.1757260232188935E+00    7.6967005527692161E+00
H    1.1292605468865007E+01   -1.4298009109162302E+00    7.9653118973750363E+00
O    1.1942631128183413E+01   -6.4215886994291815E-01    7.7978944416561644E+00
H    4.0335766904930894E+00    1.0107146876983707E+01    1.9047156343270931E+01
H    2.6707309563153037E+00    9.4045110085687433E+00    1.9505539598505727E+01
O    3.7313640672519255E+00    9.2768563891707707E+00    1.9497950444323568E+01
H    3.0671380903902028E+00    1.2504838005440309E+01    1.8601934547036947E+01
H    1.7502487943996530E+00    1.3319306485400983E+01    1.8263260858555817E+01
O    2.5441629707666609E+00    1.3374972853149460E+01    1.8822929424347333E+01
H    1.2731007856302085E+01    3.9130382570977171E+00    1.1872018879474332E+01
H    1.3402495971671634E+01    2.9493172909117864E+00    1.0958812120779882E+01
O    1.3654738679405744E+01    3.6863630398659333E+00    1.1602741730108733E+01
H    1.1590673328208679E+01    1.5743643209785198E+01    1.7516782784779018E+01
H    1.1097630599194273E+01    1.5931759599026181E+01    1.6031935074753832E+01