 # Version information for this restart file 
 # current date 2022-07-08 09:27:50.563
 # current working dir /rds/general/user/jj1921/home/junction/MD/NVT2
 # Program compiled at                              Thu 12 Jul 13:52:12 BST 2018
 # Program compiled on                                      build-2.hpc.ic.ac.uk
 # Program compiled for                                       Linux-x86-64-intel
 # Source code revision number                                         svn:18464
 &GLOBAL
   PRINT_LEVEL  LOW
   PROJECT_NAME Au_MD
   RUN_TYPE  MD
 &END GLOBAL
 &MOTION
   &MD
     ENSEMBLE  NVT
     STEPS  100000000
     TIMESTEP     4.9999999999999989E-01
     STEP_START_VAL  60210380
     TIME_START_VAL     3.0105190041055463E+07
     ECONS_START_VAL     5.3102998044228311E+00
     TEMPERATURE     3.0000000000000000E+02
     &THERMOSTAT
       TYPE  CSVR
       &CSVR
         TIMECON     9.9999999999999966E+02
         &THERMOSTAT_ENERGY
               7.6029995702320035E+00
         &END THERMOSTAT_ENERGY
         &RNG_INIT
Wiener process for Thermostat # 1        1 F T F  -6.2150427652468987E-01        1994874840.0        3367805833.0        2886187475.0        1699717299.0        3129889731.0        2549555414.0             12345.0             12345.0             12345.0             12345.0             12345.0             12345.0             12345.0             12345.0             12345.0             12345.0             12345.0             12345.0
         &END RNG_INIT
       &END CSVR
     &END THERMOSTAT
     &AVERAGES  T
       &RESTART_AVERAGES
         ITIMES_START  1
         AVECPU     8.6066101821744897E-03
         AVEHUGONIOT     0.0000000000000000E+00
         AVETEMP_BARO     0.0000000000000000E+00
         AVEPOT    -2.9945222779242666E+00
         AVEKIN     7.0820931255384512E-01
         AVETEMP     2.9997927070870207E+02
         AVEKIN_QM     0.0000000000000000E+00
         AVETEMP_QM     0.0000000000000000E+00
         AVEVOL     5.6045166872874943E+04
         AVECELL_A     3.3659572097990250E+01
         AVECELL_B     2.9150044495903092E+01
         AVECELL_C     5.7120283484637419E+01
         AVEALPHA     9.0000000000000000E+01
         AVEBETA     9.0000000000000000E+01
         AVEGAMMA     9.0000000000000000E+01
         AVE_ECONS    -1.3508008908661342E+01
         AVE_PRESS    -1.2284857468306516E+03
         AVE_PXX    -1.1169641244198403E+03
       &END RESTART_AVERAGES
     &END AVERAGES
     &PRINT
       &ENERGY  ON
         &EACH
           MD  10000
         &END EACH
       &END ENERGY
     &END PRINT
   &END MD
   &CONSTRAINT
     &FIXED_ATOMS
       COMPONENTS_TO_FIX  XYZ
       MOLNAME MOL2
     &END FIXED_ATOMS
   &END CONSTRAINT
   &PRINT
     &TRAJECTORY  ON
       &EACH
         MD  10000
       &END EACH
     &END TRAJECTORY
     &VELOCITIES  ON
       &EACH
         MD  10000
       &END EACH
     &END VELOCITIES
     &STRESS  ON
       &EACH
         MD  10000
       &END EACH
     &END STRESS
     &RESTART_HISTORY  OFF
     &END RESTART_HISTORY
   &END PRINT
 &END MOTION
 &FORCE_EVAL
   METHOD  FIST
   STRESS_TENSOR  ANALYTICAL
   &MM
     &FORCEFIELD
       IGNORE_MISSING_CRITICAL_PARAMS  T
       &SPLINE
         EMAX_ACCURACY     1.0000000000000000E-03
         UNIQUE_SPLINE  T
       &END SPLINE
       &NONBONDED
         &LENNARD-JONES
           ATOMS O O
           EPSILON     7.6526013430485477E+01
           SIGMA     3.1507000000000001E+00
           RCUT     1.1400000000000000E+01
         &END LENNARD-JONES
         &LENNARD-JONES
           ATOMS O H
           EPSILON     4.2069103146440092E+01
           SIGMA     1.7750000000000004E+00
           RCUT     1.1400000000000000E+01
         &END LENNARD-JONES
         &LENNARD-JONES
           ATOMS H H
           EPSILON     2.3138006730542052E+01
           SIGMA     4.0000000000000002E-01
           RCUT     1.1400000000000000E+01
         &END LENNARD-JONES
         &LENNARD-JONES
           ATOMS Au Au
           EPSILON     0.0000000000000000E+00
           SIGMA     0.0000000000000000E+00
           RCUT     0.0000000000000000E+00
         &END LENNARD-JONES
         &LENNARD-JONES
           ATOMS Au O
           EPSILON     4.3418268717536614E+02
           SIGMA     2.8330579239999998E+00
           RCUT     1.2000000000000000E+01
         &END LENNARD-JONES
         &LENNARD-JONES
           ATOMS Au H
           EPSILON     1.2027221251395182E+00
           SIGMA     3.5190499370000006E+00
           RCUT     1.2000000000000000E+01
         &END LENNARD-JONES
       &END NONBONDED
       &CHARGE
         ATOM O
         CHARGE    -8.3399999999999996E-01
       &END CHARGE
       &CHARGE
         ATOM H
         CHARGE     4.1699999999999998E-01
       &END CHARGE
       &CHARGE
         ATOM Au
         CHARGE     0.0000000000000000E+00
       &END CHARGE
       &BOND
         ATOMS O H
         KIND  HARMONIC
         K     4.0162846753307641E-01
         R0     1.8088458543981376E+00
       &END BOND
       &BEND
         ATOMS H O H
         KIND  HARMONIC
         K     1.7529615963481254E-01
         THETA0     1.8242181341844732E+00
       &END BEND
     &END FORCEFIELD
     &POISSON
       &EWALD
         EWALD_TYPE  SPME
         ALPHA     2.9999999999999999E-01
         GMAX  18 16 31
       &END EWALD
     &END POISSON
   &END MM
   &SUBSYS
     &CELL
       A     1.7811878396732908E+01    0.0000000000000000E+00    0.0000000000000000E+00
       B     0.0000000000000000E+00    1.5425539180689929E+01    0.0000000000000000E+00
       C     0.0000000000000000E+00    0.0000000000000000E+00    3.0226752151153697E+01
       PERIODIC  XYZ
       MULTIPLE_UNIT_CELL  1 1 1
       SYMMETRY  ORTHORHOMBIC
     &END CELL
     &COORD
H   -5.9151606796419749E+01   -2.7781829438804891E+02    2.2847353012817468E+01
H   -5.8295652781461250E+01   -2.7716223668930417E+02    2.1677780207044076E+01
O   -5.8531628103651435E+01   -2.7705711189729965E+02    2.2637031971050721E+01
H    4.3075047270848891E+01   -1.2462157835367665E+02    7.8555256130225040E+00
H    4.2051733109792679E+01   -1.2485763974142587E+02    6.8781159114379049E+00
O    4.2344060985791366E+01   -1.2520062558617978E+02    7.7465150028160608E+00
H   -4.7965771888393803E+01    1.0575565592232445E+02    9.0965000795759927E+00
H   -4.8991327300445271E+01    1.0637162393326577E+02    9.9139206946351397E+00
O   -4.8767431261734494E+01    1.0551101261487921E+02    9.6008837875544497E+00
H    7.5264383155239784E+01   -1.1933089944464371E+02    1.3328569180443226E+01
H    7.6653659454525084E+01   -1.1972739343373779E+02    1.2689726577345930E+01
O    7.5667670025552653E+01   -1.1991544740903048E+02    1.2597580521370809E+01
H    4.8892383971101786E+01   -8.6301981320708535E+01    8.0446426458289189E+00
H    4.9517296866955846E+01   -8.7599892726998021E+01    7.5363087852927375E+00
O    4.9744053834331815E+01   -8.6712908478981433E+01    7.6430985356775176E+00
H    4.6648383474171709E+01   -1.7763786137414890E+01    1.2531115275810247E+01
H    4.6224251266937685E+01   -1.7997367305164438E+01    1.1121292957770075E+01
O    4.6627182317446852E+01   -1.8511976670593285E+01    1.1860543240177760E+01
H   -1.6999313458556617E+01    2.5346860173241140E+01    2.2421244303270452E+01
H   -1.8302009340295402E+01    2.6170178069408060E+01    2.2341860231150854E+01
O   -1.7297630488770999E+01    2.6199493115719402E+01    2.2166152105567214E+01
H    1.3098560626132260E+02   -5.4069310860458714E+01    1.0175699583916677E+01
H    1.3035332096892941E+02   -5.5017966694766450E+01    1.1020645710003818E+01
O    1.3037718832630824E+02   -5.4815724398800697E+01    1.0076408064006619E+01
H    1.3385398287163298E+02    1.1828553442279019E+02    2.3094328810904475E+01
H    1.3295375745506220E+02    1.1890539547208003E+02    2.2044862541694794E+01
O    1.3368515656652451E+02    1.1827440953354520E+02    2.2130758240818412E+01
H   -1.0299646766319190E+01    4.6368604683329231E+01    2.2497214751377456E+01
H   -9.1356383072640615E+00    4.7226417196234905E+01    2.2045697202939955E+01
O   -9.3489005251309436E+00    4.6270752409930878E+01    2.2145611882112181E+01
H    1.2211668918422581E+02    1.7386942191807332E+01    1.5970525921230706E+01
H    1.2127208560095968E+02    1.6845177329225283E+01    1.4822494614574678E+01
O    1.2219203770364119E+02    1.7144424656316989E+01    1.5018873014021960E+01
H    1.6672414395501107E+02    1.9492855206501432E+01    8.8424070062584725E+00
H    1.6714788316341739E+02    2.0492295281159571E+01    9.8995637391949121E+00
O    1.6749084508831240E+02    1.9662647595293503E+01    9.4314095760694041E+00
H    2.5407149958111845E+01    4.0326201221619698E+01    9.5698492634401866E+00
H    2.4622452706023047E+01    4.0446733781216707E+01    1.0826007997796578E+01
O    2.5265620465251146E+01    3.9855692335333131E+01    1.0367146972306935E+01
H    5.6403207648503582E+01   -6.8887913043165526E+01    1.8255349680968283E+01
H    5.7426680568853747E+01   -6.8157869802992266E+01    1.7554402480852424E+01
O    5.7231402839531540E+01   -6.9055350022178530E+01    1.7845406411409893E+01
H    8.8622256693445195E+01    1.0236297615535699E+02    7.5809032254681306E+00
H    8.7144795850835962E+01    1.0230792863730343E+02    7.6121165444575176E+00
O    8.7871840003475910E+01    1.0298694887845976E+02    7.4328276598395817E+00
H    4.0050535755864877E+02   -1.8128042615158716E+02    7.9696864128426421E+00
H    4.0174759774330295E+02   -1.8177346302913838E+02    7.3158400085104356E+00
O    4.0084132286137651E+02   -1.8195212145844454E+02    7.3706805237032293E+00
H    1.0933822643706249E+02   -1.1745073184233705E+02    1.1117048432477336E+01
H    1.0792449366152363E+02   -1.1785651971320051E+02    1.0955197822259132E+01
O    1.0883859332314810E+02   -1.1821186787227590E+02    1.0741824447333419E+01
H    1.6634815683645778E+02    5.3548905631286473E+01    1.6259502078298635E+01
H    1.6511418651431191E+02    5.3132749655519746E+01    1.6912081548740819E+01
O    1.6585544434175239E+02    5.2714592711304917E+01    1.6431873579657939E+01
H   -7.7401539752659154E+00    9.8634137733119811E+00    1.2594400596401528E+01
H   -7.7909134823653741E+00    1.1272097490996151E+01    1.2796938513127641E+01
O   -8.3285621321861782E+00    1.0468377187266670E+01    1.3043627801757344E+01
H    1.4356602905728675E+01    7.7736544893753930E+01    2.0088813839199883E+01
H    1.5338779116432951E+01    7.8918886699298426E+01    1.9879936666880088E+01
O    1.4479561239407966E+01    7.8688636722099389E+01    2.0261288987008225E+01
H    1.0183964109102563E+02   -2.0978732813559728E+02    1.2556670843193404E+01
H    1.0054768716676445E+02   -2.1067581130761889E+02    1.2657880431353339E+01
O    1.0084767811726000E+02   -2.0983439159158337E+02    1.2413987820097294E+01
H    1.0485568245615414E+02    6.7644067116389550E+01    8.1305402459385778E+00
H    1.0626459796329399E+02    6.7563256963355940E+01    7.3485910799402747E+00
O    1.0581973600459618E+02    6.7811469966705857E+01    8.2099616013165146E+00
H    8.1289406363821954E+01    1.5696348671826595E+02    2.2511607645461812E+01
H    8.2620819470232220E+01    1.5617589755081008E+02    2.2732842978418962E+01
O    8.2263293619275046E+01    1.5708643475268266E+02    2.2665151970643979E+01
H   -1.7850043596367573E+02    8.6224258577246346E+01    1.0241728371175991E+01
H   -1.7775489703019221E+02    8.7202159667136172E+01    1.1034988616871816E+01
O   -1.7861653735321283E+02    8.6791993404703945E+01    1.0987747432047948E+01
H    7.5395618312431578E+00    1.9295895180695037E+01    1.3178696573949372E+01
H    7.3270903859718057E+00    1.9276145958510845E+01    1.4778954407973535E+01
O    7.2269876807304758E+00    1.9789781179977130E+01    1.3953201571383714E+01
H    3.3155670045487227E+01   -1.1885528374302677E+02    2.2509827110020989E+01
H    3.4662372333234423E+01   -1.1901290064948296E+02    2.2060672498776995E+01
O    3.3937258682114219E+01   -1.1837316661863322E+02    2.2362976120649996E+01
H   -1.0247688632650274E+02   -1.8215136592380944E+01    1.9792453921766768E+01
H   -1.0160839943422725E+02   -1.7058084162624642E+01    1.9598310899505897E+01
O   -1.0150328596324113E+02   -1.8037534188856455E+01    1.9816178425666994E+01
H   -2.0234011197139825E+00   -1.7077970461586239E+02    1.1600182018778254E+01
H   -1.8362787269743277E+00   -1.7065839228259810E+02    1.3018195652776713E+01
O   -2.1563279483294835E+00   -1.7016703071090237E+02    1.2316461125279067E+01
H    7.1200230775342220E+01   -5.2372168800967223E+01    1.8750952940328759E+01
H    7.0736749516115694E+01   -5.2064036706053564E+01    1.7359424431658052E+01
O    7.0752740765554805E+01   -5.1711794886279627E+01    1.8270438048196368E+01
H    1.2753537450467800E+01   -8.2612959412269049E+01    7.4697137118179810E+00
H    1.3004362804301042E+01   -8.1593081117617572E+01    8.5930442460275653E+00
O    1.2812933727137723E+01   -8.1625411755354008E+01    7.6321867767424756E+00
H   -4.9926922127416553E+01   -1.0488976094595158E+02    1.5547082403621916E+01
H   -5.0962392121583058E+01   -1.0587550086977447E+02    1.5799052437942166E+01
O   -4.9999559330066539E+01   -1.0584705366033944E+02    1.5664332968017774E+01
H    1.9266799641158048E+01   -5.0307779104904967E+01    1.2004638615649371E+01
H    1.9593267934648818E+01   -4.9666264257241252E+01    1.0745782042282009E+01
O    1.9653823884853267E+01   -5.0556745031939080E+01    1.1158613337157689E+01
H    1.0589342321651577E+02    3.7390771091386405E+01    1.9621097427429401E+01
H    1.0696754596536778E+02    3.7195291145376494E+01    2.0661588119086563E+01
O    1.0677504654187095E+02    3.6945818022434871E+01    1.9787378618514445E+01
H   -5.4375131044690320E+01   -1.3481178634177239E+01    1.8864905832594040E+01
H   -5.3608029411376464E+01   -1.2267848636387457E+01    1.9178210847771997E+01
O   -5.4510671833162306E+01   -1.2615708777047349E+01    1.9216139804245639E+01
H    3.6115092138749084E+01    1.6094623975093478E+02    1.3764821979888389E+01
H    3.7508035798342618E+01    1.6135812246529804E+02    1.3330686893366057E+01
O    3.7002202788941695E+01    1.6099455479529121E+02    1.4113059115417757E+01
H    9.1102846227348095E+01   -2.1435265364799423E+02    1.0378220446811655E+01
H    9.0188172896952253E+01   -2.1475494675022529E+02    9.2578996548433636E+00
O    9.0283506267842398E+01   -2.1491498000603531E+02    1.0199773682141593E+01
H   -2.0059522625327978E+02   -9.5740360996989892E+01    1.1911409549743112E+01
H   -1.9917383664817206E+02   -9.5435729156094908E+01    1.2143206854928387E+01
O   -2.0000306029834505E+02   -9.5596385695927069E+01    1.2670362243401627E+01
H   -1.9031266137257501E+02    4.4755225502789166E+01    1.3291534132992124E+01
H   -1.9037840279739083E+02    4.4589024654493976E+01    1.4852493814679827E+01
O   -1.8992524761503225E+02    4.4244063731997187E+01    1.4041887769278318E+01
H   -1.5998943448693950E+02   -8.0962651248233115E+01    1.8288467205800870E+01
H   -1.5900040565740201E+02   -8.0315666001758032E+01    1.7342277299243857E+01
O   -1.5914470744387543E+02   -8.0472186589725993E+01    1.8296865051777193E+01
H    1.9117247461747233E+01    2.9134267228063408E+01    1.5587430711606562E+01
H    2.0595209225569995E+01    2.9204061816734761E+01    1.5594798149443937E+01
O    1.9891785760147133E+01    2.8553978621129446E+01    1.5743631331571878E+01
H    1.7830530243726439E+01   -3.1548542071810370E+01    1.9253439919358460E+01
H    1.7354931099663585E+01   -3.0996280983788623E+01    2.0644381138527319E+01
O    1.7378590986722529E+01   -3.0805998785259071E+01    1.9679607454953278E+01
H    4.9090951103256986E+00    9.5391726282422454E+01    7.5212577201311888E+00
H    4.6039407970777164E+00    9.6104203306286124E+01    8.6435835729546220E+00
O    5.0922774700037570E+00    9.6233031183783709E+01    7.8876137735140937E+00
H    9.0641896195120751E+01   -1.0217150464359815E+01    8.6202868022813650E+00
H    9.1551648920085199E+01   -9.9156903181194718E+00    7.5831298607529671E+00
O    9.0630461699367586E+01   -1.0115414302071891E+01    7.6921756976736013E+00
H    1.9703511719126644E+02   -5.9415464408422828E+01    1.7810247819234057E+01
H    1.9754136218771836E+02   -6.0763508058320909E+01    1.8019418164351567E+01
O    1.9709857107539290E+02   -6.0224616605014191E+01    1.7337390279813498E+01
H    1.3711482294727585E+02   -8.3090447597473172E+01    1.9665570751523845E+01
H    1.3788418736557844E+02   -8.2083301486143768E+01    1.8877699351578595E+01
O    1.3803319539125548E+02   -8.2955002013152694E+01    1.9315451354793336E+01
H    3.9735493080086115E+01    5.1545573673903434E+01    1.5468073719663749E+01
H    3.8313875256438621E+01    5.1494237373254542E+01    1.4960459224705760E+01
O    3.9110537015627820E+01    5.0944356593439153E+01    1.5112960709403538E+01
H    3.8908034084944085E+00    4.9119929037698348E+01    1.0936933223773570E+01
H    2.8754096836372445E+00    5.0043177075316422E+01    1.0315575714746037E+01
O    3.2338890023430817E+00    4.9161645166828649E+01    1.0204448749432380E+01
H    1.0258574175215429E+02    5.6879997287357099E+01    1.3213074658544103E+01
H    1.0359405378740745E+02    5.5818433804966070E+01    1.3315537059377951E+01
O    1.0265972779080937E+02    5.5952163721121750E+01    1.3390388937678431E+01
H   -1.6451477187671063E+01   -5.4394622308788875E+01    2.2327786699463424E+01
H   -1.5597849609061976E+01   -5.3235377381165833E+01    2.2608682248362342E+01
O   -1.6531746505038043E+01   -5.3439981626010301E+01    2.2454462980708090E+01
H   -1.1747883576065507E+02   -1.8883829522420875E+01    7.5021753854191378E+00
H   -1.1616740602428195E+02   -1.9633332227490012E+01    7.4122387403754955E+00
O   -1.1710584644298545E+02   -1.9829155870668306E+01    7.5480256000003116E+00
H   -1.9799272565364419E+01    2.1240776600219309E+02    7.6145575986417136E+00
H   -2.1356611695857623E+01    2.1252567482650807E+02    7.6772121085599778E+00
O   -2.0543037644477337E+01    2.1298640002478382E+02    8.0011075495376733E+00
H    1.1062186444225752E+02    1.1540261123991733E+02    1.2644555479036185E+01
H    1.1033267401725419E+02    1.1605938237392571E+02    1.1331988355286132E+01
O    1.0988367107791684E+02    1.1559468651509712E+02    1.2078817302664124E+01
H    3.1043620640697762E+00   -6.0365393817297480E+01    2.2402721174772680E+01
H    4.0632035121583918E+00   -5.9414029034396748E+01    2.1903960714230273E+01
O    4.0597146639501451E+00   -6.0122785345822962E+01    2.2516617246655013E+01
H    2.5678962622997602E+02    5.8810029184583250E+01    1.6930448834788930E+01
H    2.5664056798398406E+02    5.9289534722810124E+01    1.5577192946364983E+01
O    2.5734898098908548E+02    5.8974966907030037E+01    1.6139596596716352E+01
H   -1.2461398469807010E+02    1.0028949892040673E+02    1.5516281101006461E+01
H   -1.2526316604363794E+02    1.0150871174216381E+02    1.4943122135308457E+01
O   -1.2511338796579280E+02    1.0104203621639189E+02    1.5783304148083289E+01
H   -3.7800702854157073E+01   -1.7565427640508443E+02    2.2728745789831876E+01
H   -3.8834281419461362E+01   -1.7466858475896072E+02    2.2240965452108131E+01
O   -3.7886775863552963E+01   -1.7469974012256699E+02    2.2496943219523704E+01
H   -4.5431859461370552E+00   -5.8260639147571908E+01    1.6265566157326333E+01
H   -5.6617872554843709E+00   -5.7413133171722109E+01    1.6036106100032139E+01
O   -5.4440784240700388E+00   -5.8341684765098151E+01    1.5965288341632068E+01
H   -4.1750748848931813E+01   -1.0317795921327765E+02    2.3033536240636927E+01
H   -4.0308378575063912E+01   -1.0314643351201778E+02    2.2592126008400360E+01
O   -4.1092768457553717E+01   -1.0257777590994601E+02    2.2536033454075756E+01
H    2.9192690158591574E+01    2.3323349781785392E+01    1.2145973130460565E+01
H    3.0153887093847654E+01    2.4471834912889026E+01    1.2431801494800991E+01
O    2.9387742900760390E+01    2.4205078149697801E+01    1.1889909517073271E+01
H   -1.6230655563334147E+02    1.6203973719898546E+01    2.1870409330591144E+01
H   -1.6189792475586884E+02    1.5051037108743250E+01    2.2746511235527247E+01
O   -1.6152198306714908E+02    1.5848948687156829E+01    2.2371890970135951E+01
H   -6.9623596574711986E+00   -4.4931493955765951E+01    1.0193555793088924E+01
H   -6.1884899952194585E+00   -4.5207714933736021E+01    1.1419869165811585E+01
O   -6.7486601490478231E+00   -4.4522332301579901E+01    1.1024694727600485E+01
H   -8.6028346517231455E+01   -7.8853529924088747E+01    2.3031449743047894E+01
H   -8.5620596322608577E+01   -7.9700029081716494E+01    2.1881079896992048E+01
O   -8.5213971299169174E+01   -7.9174526157602415E+01    2.2628744291987179E+01
H    8.5475239410067545E+01   -1.8228061047644992E+00    2.0410933659290325E+01
H    8.6212395040114686E+01   -1.7138249206467489E+00    1.9205960612038748E+01
O    8.5698193469950013E+01   -1.1120193294708212E+00    1.9771197108634894E+01
H    2.2728216553092844E+02   -2.2901305846185431E+02    2.3091955184021387E+01
H    2.2784077583532579E+02   -2.2862007928804223E+02    2.1812697299005276E+01
O    2.2789423707517449E+02   -2.2833475088361971E+02    2.2782229998943333E+01
H   -1.8540617036880715E+02   -7.3983574066098697E+01    1.6346681013028537E+01
H   -1.8592343415555180E+02   -7.3285152291026435E+01    1.7537235704926694E+01
O   -1.8623290995142256E+02   -7.3887130231044949E+01    1.6815338491856071E+01
H   -1.3377197549889897E+02    1.0969133604546515E+01    1.5998329700631455E+01
H   -1.3334958515811849E+02    1.0112704253820080E+01    1.4826381646243251E+01
O   -1.3341308057770431E+02    1.0091941841804669E+01    1.5809963268410932E+01
H   -4.9324544199676275E+01    1.3916325703353630E+02    7.7044682174494890E+00
H   -4.8118038755163298E+01    1.3924852525047106E+02    8.5875531418375992E+00
O   -4.8522194977870086E+01    1.3967964505700976E+02    7.7991067289076517E+00
H    2.1737290674608909E+02    2.3206091909347926E+01    7.6424504261805755E+00
H    2.1761172889945942E+02    2.4775702028528251E+01    7.4780309647614658E+00
O    2.1703886721862369E+02    2.4083542243273836E+01    7.8767963897519007E+00
H    7.5347582673514006E+00    1.3652964718145785E+02    1.2073171058153294E+01
H    7.7913066092639163E+00    1.3720658230373212E+02    1.0746315496330425E+01
O    7.3670867323049860E+00    1.3742627077116492E+02    1.1654207681165786E+01
H   -1.5784023689251106E+02   -1.5643819339235944E+02    7.1708213327343513E+00
H   -1.5678917092798730E+02   -1.5633132054046482E+02    8.0485527199096580E+00
O   -1.5737213749010502E+02   -1.5568634535803506E+02    7.5358996043401554E+00
H   -8.8528475038142489E+01   -6.1186886120916725E+01    1.6092090688783394E+01
H   -8.9713398613864513E+01   -6.1521203905869321E+01    1.5246513731768998E+01
O   -8.8765576274512199E+01   -6.1680765538220257E+01    1.5220438151817493E+01
H    4.7845063697001869E+01   -7.9666546945726765E+01    1.8815462401941968E+01
H    4.9251190567828409E+01   -8.0047028113806775E+01    1.8478662859681457E+01
O    4.8396600201304118E+01   -8.0506532774983171E+01    1.8739493372022366E+01
H    3.6899986900853165E+01    5.4227104209244871E+01    2.0150251547725933E+01
H    3.7557373794015128E+01    5.5639247983351929E+01    2.0124461571214461E+01
O    3.6999292029259962E+01    5.5019266891642687E+01    1.9612323345118728E+01
H   -5.9535828497336425E+01   -1.4894569304046195E+02    9.2782969279764114E+00
H   -5.9639613472313947E+01   -1.4801461889899332E+02    1.0443858079479202E+01
O   -5.9316919545151286E+01   -1.4800893616259120E+02    9.5328606753702960E+00
H    2.8362276474784551E+02    1.1285975171426714E+00    1.2128480720390185E+01
H    2.8484277782372476E+02    1.4207687520900685E+00    1.1326060792595625E+01
O    2.8411674967385949E+02    1.8832948468109720E+00    1.1763426801793134E+01
H    3.6371409009583559E+01   -1.6878039741326688E+02    2.2709637079652826E+01
H    3.7089710023205370E+01   -1.7010250456674771E+02    2.2632537844399028E+01
O    3.7251764355702583E+01   -1.6914693166011205E+02    2.2453460921059758E+01
H   -1.3437134502959594E+02    3.2471546391384543E+01    7.5466707135179041E+00
H   -1.3573926079046279E+02    3.1968830966306875E+01    7.5676980672732865E+00
O   -1.3485961559246547E+02    3.1631525388896893E+01    7.3209485696116854E+00
H   -5.6792261828988934E+01    7.1700227204759940E+01    9.3568206533337648E+00
H   -5.7741952172445529E+01    7.1157786637750419E+01    1.0490554444510888E+01
O   -5.7456023149152635E+01    7.1956763286213302E+01    1.0009555177212421E+01
H   -2.3183765410024908E+01   -2.2439420688608260E+02    1.5921864711567826E+01
H   -2.2087055484189751E+01   -2.2483927521350810E+02    1.6859124397097698E+01
O   -2.2882474222412448E+01   -2.2521798890260843E+02    1.6402877415687506E+01
H    7.0591131296345807E+01    1.1423170578826370E+02    9.8526093483900770E+00
H    6.9767190630491839E+01    1.1475880411068640E+02    1.0881757849172029E+01
O    7.0628199693984300E+01    1.1442134235871490E+02    1.0764480240837541E+01
H   -3.8296458731658014E+01    8.2217168483695204E+01    1.2752322314314489E+01
H   -3.8298735957974877E+01    8.3385847931335604E+01    1.3544168659449085E+01
O   -3.8763376784911244E+01    8.3087574792220053E+01    1.2743187724757627E+01
H   -6.6306088204408624E+01    3.2927561705130358E+01    1.7769142904526472E+01
H   -6.5418021969194356E+01    3.4197442695235274E+01    1.7946406421461813E+01
O   -6.6024461120912491E+01    3.3578561838728426E+01    1.8443195954418044E+01
H    1.0356663699440912E+02    1.4327816490896652E+02    1.7473516034239275E+01
H    1.0469101410549675E+02    1.4267446103928714E+02    1.7924209114866873E+01
O    1.0423620379415408E+02    1.4265114841599791E+02    1.7063035947424030E+01
H    2.2399779115660024E+02   -8.1421244735595039E+01    8.5676359854054152E+00
H    2.2487076135410507E+02   -8.0789906531889557E+01    7.5930336433782335E+00
O    2.2396843606268811E+02   -8.0662692118825959E+01    7.9226101754044516E+00
H    1.2731570463929619E+02   -2.7268000742281576E+01    1.9766230183748846E+01
H    1.2886213082635146E+02   -2.7383463324610329E+01    1.9814285753831236E+01
O    1.2807459720986154E+02   -2.7518582144661842E+01    2.0382250539894901E+01
H    3.3767715799547645E+01   -3.8427448045618760E+01    1.6482007382367993E+01
H    3.3037188628566753E+01   -3.8671105427029786E+01    1.7828642070499860E+01
O    3.2909712573970083E+01   -3.8687439756939263E+01    1.6861284975114877E+01
H   -7.5531666464335165E+00    2.4903757093805435E+01    2.1090883013336285E+01
H   -7.3691969653268155E+00    2.5025532385671774E+01    1.9679785092268904E+01
O   -6.8384463882794337E+00    2.4743223840601996E+01    2.0432857386742562E+01
H    9.2817228466638426E+01    9.4055428320299640E+01    1.2827474987735021E+01
H    9.1834075878555325E+01    9.2985894991147845E+01    1.3084884926892489E+01
O    9.2725268078632382E+01    9.3095707522946242E+01    1.2778636394226718E+01
H   -1.4494060478626969E+02    8.4664416828090925E+00    2.0341768913511789E+01
H   -1.4576783779822242E+02    8.1659029896933131E+00    1.9358378382613974E+01
O   -1.4492378967530829E+02    7.8137648565858200E+00    1.9640673009489536E+01
H    1.1258759264908412E+02    2.6318602423579243E+01    1.7745084628336276E+01
H    1.1319754316019667E+02    2.7261469182747373E+01    1.8772463709584038E+01
O    1.1345759106312138E+02    2.6669174199190380E+01    1.8047351832124278E+01
H   -1.2538962091846768E+01   -9.2154631896330002E+01    2.2604248556095879E+01
H   -1.2226475611932401E+01   -9.3602972034824262E+01    2.3097850952483789E+01
O   -1.1843123527829757E+01   -9.2790260969008258E+01    2.2763629185992880E+01
H   -1.3869928485655890E+02   -9.6944309046351236E+01    1.6256222692820145E+01
H   -1.3947670412433325E+02   -9.6550119548825904E+01    1.7563434131582483E+01
O   -1.3877762826812526E+02   -9.7151263931704989E+01    1.7197384079336032E+01
H    2.1365917324239376E+02   -1.4127833867488650E+02    7.2336498392106643E+00
H    2.1273064637765515E+02   -1.4022518802021767E+02    7.7228975348585234E+00
O    2.1360138864277212E+02   -1.4037402522743790E+02    7.4785273386885658E+00
H    7.8829725957030263E+01   -7.6952636376146828E+01    1.3099891799970649E+01
H    7.9545691498983288E+01   -7.5652432893815302E+01    1.2988729675830541E+01
O    7.9536915750444052E+01   -7.6460110278007605E+01    1.3571416404035132E+01
H   -1.3300132813987378E+02    1.6800128184504763E+02    1.6442141470410473E+01
H   -1.3183086995811712E+02    1.6845184538661482E+02    1.7319285391445646E+01
O   -1.3213903930526939E+02    1.6844139823288037E+02    1.6396736963287722E+01
H    8.1894902968128406E+01   -5.8537967130261237E+01    1.3589301586487716E+01
H    8.2292876391162736E+01   -5.8650471500849271E+01    1.2117769851932316E+01
O    8.1740670790351814E+01   -5.8093470147064600E+01    1.2736350946391397E+01
H    5.3971094285615180E+01    1.2366588901858927E+02    7.4355687357887241E+00
H    5.5466306165550193E+01    1.2336981112761440E+02    7.2082861140564294E+00
O    5.4862582906752301E+01    1.2411015072009080E+02    7.4539202247358807E+00
H    1.1509209739972717E+02    1.5311876780304257E-01    1.9172157668143072E+01
H    1.1469854167382749E+02   -5.6300102526355944E-01    1.7997609023035935E+01
O    1.1506275538490365E+02   -7.7677578851601425E-01    1.8833826033410293E+01
H    2.9904132047475450E+01   -1.0784310407201635E+02    8.6631774058825322E+00
H    2.8735988889569494E+01   -1.0759810777647290E+02    7.7052485645195219E+00
O    2.8987637891117959E+01   -1.0741311844614208E+02    8.5816898061458868E+00
H   -3.0900079737571936E+01    6.9900165526213755E+01    2.1533987856724252E+01
H   -3.0892064554717845E+01    7.0981720562409748E+01    2.2597152641066153E+01
O   -3.1300316517410263E+01    7.0130406938559673E+01    2.2412089423230590E+01
H   -3.3602696684341794E+01   -1.9531496202822954E+01    2.1124474045723250E+01
H   -3.3646243621484572E+01   -1.8723652595511041E+01    1.9892029200274699E+01
O   -3.3062433285808154E+01   -1.8921037087400343E+01    2.0634720680722474E+01