 # Version information for this restart file 
 # current date 2023-02-21 21:58:03.818
 # current working dir /work4/scd/scarf1157/work/testing/cp2k-smeagol/bdt/cp2k/hollow-site/transport-cp2k/5-4/geometry-ordered/3x3-4/sz/bulk_layers-4/geo_opt/Au-S-2.6_dft
 # Program compiled at                              Thu 26 Jan 13:39:53 GMT 2023
 # Program compiled on                                     cn1108.scarf.rl.ac.uk
 # Program compiled for                                                    local
 # Source code revision number                                       git:1ef701d
 &GLOBAL
   EXTENDED_FFT_LENGTHS  T
   PRINT_LEVEL  MEDIUM
   PROJECT_NAME dft_wfn
   RUN_TYPE  GEO_OPT
 &END GLOBAL
 &MOTION
   &GEO_OPT
     OPTIMIZER  BFGS
     MAX_ITER  1000
     STEP_START_VAL  10
   &END GEO_OPT
   &CONSTRAINT
     &FIXED_ATOMS
       LIST  1..40 76..116
     &END FIXED_ATOMS
   &END CONSTRAINT
   &PRINT
     &TRAJECTORY  ON
       FORMAT  XMOL
     &END TRAJECTORY
   &END PRINT
 &END MOTION
 &FORCE_EVAL
   METHOD  QS
   &DFT
     BASIS_SET_FILE_NAME BASIS_MOLOPT
     POTENTIAL_FILE_NAME GTH_POTENTIALS
     &SCF
       MAX_SCF  100
       EPS_SCF     9.9999999999999995E-08
       SCF_GUESS  ATOMIC
       ADDED_MOS  100
       &SMEAR  T
         METHOD  FERMI_DIRAC
         ELECTRONIC_TEMPERATURE     2.9300000000000000E+02
       &END SMEAR
       &MIXING  T
         METHOD  BROYDEN_MIXING
         ALPHA     2.9999999999999999E-01
         NBUFFER  8
       &END MIXING
       &PRINT
         &RESTART  SILENT
           FILENAME RESTART_0
         &END RESTART
       &END PRINT
     &END SCF
     &MGRID
       CUTOFF     4.0000000000000000E+02
     &END MGRID
     &XC
       DENSITY_CUTOFF     1.0000000000000000E-10
       GRADIENT_CUTOFF     1.0000000000000000E-10
       TAU_CUTOFF     1.0000000000000000E-10
       &XC_FUNCTIONAL  NO_SHORTCUT
         &PADE  T
         &END PADE
       &END XC_FUNCTIONAL
     &END XC
     &POISSON
       PERIODIC  XYZ
     &END POISSON
     &KPOINTS
       SCHEME MONKHORST-PACK 2 2 1
       SYMMETRY  F
       FULL_GRID  T
       VERBOSE  T
       EPS_GEO     1.0000000000000000E-08
       PARALLEL_GROUP_SIZE  0
     &END KPOINTS
     &PRINT
       &E_DENSITY_CUBE  ON
         STRIDE  2 2 2
       &END E_DENSITY_CUBE
       &V_HARTREE_CUBE  SILENT
         STRIDE  2 2 2
       &END V_HARTREE_CUBE
       &HIRSHFELD  SILENT
         SHAPE_FUNCTION  DENSITY
       &END HIRSHFELD
     &END PRINT
   &END DFT
   &SUBSYS
     &CELL
       A     8.2919999999999998E+00    0.0000000000000000E+00    0.0000000000000000E+00
       B     0.0000000000000000E+00    8.2919999999999998E+00    0.0000000000000000E+00
       C     0.0000000000000000E+00    0.0000000000000000E+00    3.4360999999999997E+01
       PERIODIC  XYZ
       MULTIPLE_UNIT_CELL  1 1 1
     &END CELL
     &COORD
Au    0.0000000000000000E+00    0.0000000000000000E+00    0.0000000000000000E+00
Au    0.0000000000000000E+00    4.1459999999999999E+00    0.0000000000000000E+00
Au    2.0730000000000000E+00    2.0730000000000000E+00    0.0000000000000000E+00
Au    2.0730000000000000E+00    6.2190000000000012E+00    0.0000000000000000E+00
Au    4.1459999999999999E+00    0.0000000000000000E+00    0.0000000000000000E+00
Au    4.1459999999999999E+00    4.1459999999999999E+00    0.0000000000000000E+00
Au    6.2190000000000012E+00    2.0730000000000000E+00    0.0000000000000000E+00
Au    6.2190000000000012E+00    6.2190000000000012E+00    0.0000000000000000E+00
Au    0.0000000000000000E+00    2.0730000000000000E+00    2.0730000000000000E+00
Au    0.0000000000000000E+00    6.2190000000000012E+00    2.0730000000000000E+00
Au    2.0730000000000000E+00    0.0000000000000000E+00    2.0730000000000000E+00
Au    2.0730000000000000E+00    4.1459999999999999E+00    2.0730000000000000E+00
Au    4.1459999999999999E+00    2.0730000000000000E+00    2.0730000000000000E+00
Au    4.1459999999999999E+00    6.2190000000000012E+00    2.0730000000000000E+00
Au    6.2190000000000012E+00    0.0000000000000000E+00    2.0730000000000000E+00
Au    6.2190000000000012E+00    4.1459999999999999E+00    2.0730000000000000E+00
Au    0.0000000000000000E+00    0.0000000000000000E+00    4.1459999999999999E+00
Au    0.0000000000000000E+00    4.1459999999999999E+00    4.1459999999999999E+00
Au    2.0730000000000000E+00    2.0730000000000000E+00    4.1459999999999999E+00
Au    2.0730000000000000E+00    6.2190000000000012E+00    4.1459999999999999E+00
Au    4.1459999999999999E+00    0.0000000000000000E+00    4.1459999999999999E+00
Au    4.1459999999999999E+00    4.1459999999999999E+00    4.1459999999999999E+00
Au    6.2190000000000012E+00    2.0730000000000000E+00    4.1459999999999999E+00
Au    6.2190000000000012E+00    6.2190000000000012E+00    4.1459999999999999E+00
Au    0.0000000000000000E+00    2.0730000000000000E+00    6.2190000000000012E+00
Au    0.0000000000000000E+00    6.2190000000000012E+00    6.2190000000000012E+00
Au    2.0730000000000000E+00    0.0000000000000000E+00    6.2190000000000012E+00
Au    2.0730000000000000E+00    4.1459999999999999E+00    6.2190000000000012E+00
Au    4.1459999999999999E+00    2.0730000000000000E+00    6.2190000000000012E+00
Au    4.1459999999999999E+00    6.2190000000000012E+00    6.2190000000000012E+00
Au    6.2190000000000012E+00    0.0000000000000000E+00    6.2190000000000012E+00
Au    6.2190000000000012E+00    4.1459999999999999E+00    6.2190000000000012E+00
Au    0.0000000000000000E+00    0.0000000000000000E+00    8.2919999999999998E+00
Au    0.0000000000000000E+00    4.1459999999999999E+00    8.2919999999999998E+00
Au    2.0730000000000000E+00    2.0730000000000000E+00    8.2919999999999998E+00
Au    2.0730000000000000E+00    6.2190000000000012E+00    8.2919999999999998E+00
Au    4.1459999999999999E+00    0.0000000000000000E+00    8.2919999999999998E+00
Au    4.1459999999999999E+00    4.1459999999999999E+00    8.2919999999999998E+00
Au    6.2190000000000012E+00    2.0730000000000000E+00    8.2919999999999998E+00
Au    6.2190000000000012E+00    6.2190000000000012E+00    8.2919999999999998E+00
Au   -1.0354593621314751E-04    2.0734734515343689E+00    1.0382090707585366E+01
Au    2.3606807066452443E-05    6.2181403095575272E+00    1.0335903293207057E+01
Au    2.0869591665089140E+00    2.6439326860821916E-02    1.0388229818370256E+01
Au    2.0880245228118675E+00    4.1192730925598369E+00    1.0390710999329835E+01
Au    4.1458997578564221E+00    2.0738403929702507E+00    1.0386175166273752E+01
Au    4.1461046410782920E+00    6.2195634383054319E+00    1.0349703263702693E+01
Au    6.2051675757511680E+00    2.6405996736844919E-02    1.0388226743898100E+01
Au    6.2040930940918741E+00    4.1193066488854040E+00    1.0390719749227882E+01
Au   -1.9095423861594952E-04   -5.0241227842121580E-02    1.2470942467575963E+01
Au   -1.7920041152100018E-04    4.1955828699156630E+00    1.2470381010219885E+01
Au    1.9215116314598559E+00    2.0702165487265525E+00    1.2530173528960679E+01
Au    2.0086043789502783E+00    6.2213833030083556E+00    1.2457356145554433E+01
Au    4.1465262908341449E+00   -1.6457459204274832E-01    1.2477097463559204E+01
Au    4.1465242199218455E+00    4.3203995651116385E+00    1.2480534517950836E+01
Au    6.3700343165211875E+00    2.0702159501860762E+00    1.2530775283937118E+01
Au    6.2835218264942068E+00    6.2213925960719276E+00    1.2458166512086908E+01
S    4.1446280476810324E+00    2.0847856854861537E+00    1.3972414672540731E+01
C    4.1434294506885347E+00    2.0807176434412833E+00    1.5782817869934101E+01
H    1.9833362465991091E+00    2.0792821999035849E+00    1.5933716467749038E+01
H    6.3031632749761215E+00    2.0791596847134608E+00    1.5937374487525851E+01
C    2.9216926835209622E+00    2.0768985717900419E+00    1.6477697733601662E+01
C    5.3639469491043599E+00    2.0772489899574058E+00    1.6479843710396292E+01
C    2.9201922141399144E+00    2.0704455749786361E+00    1.7878662632104554E+01
C    5.3628681710539645E+00    2.0701091481764964E+00    1.7880793596111427E+01
H    1.9804442285882164E+00    2.0668770491743236E+00    1.8419919064088781E+01
H    6.3017044628754988E+00    2.0669686777913419E+00    1.8423599406513720E+01
C    4.1409608423067139E+00    2.0673691602643118E+00    1.8575946233214871E+01
S    4.1403635945779635E+00    2.0640195072026812E+00    2.0387553360061180E+01
Au   -1.5671072416094712E-02   -5.1542247540996795E-02    2.1890722358718119E+01
Au   -1.6992530337262619E-02    4.1986135664561335E+00    2.1889164271817027E+01
Au    1.9132303263685018E+00    2.0753506991103583E+00    2.1862026976439555E+01
Au    2.0041307060777624E+00    6.2165849393253145E+00    2.1884313741112926E+01
Au    4.1163858337582466E+00   -1.4036514587573870E-01    2.1899927383966833E+01
Au    4.1185943064503876E+00    4.2797678790530727E+00    2.1901651216154061E+01
Au    6.3547043841551858E+00    2.0745733018594157E+00    2.1868108130002096E+01
Au    6.2190000000000012E+00    6.2190000000000012E+00    2.1923000000000002E+01
Au    0.0000000000000000E+00    2.0730000000000000E+00    2.3995999999999999E+01
Au    0.0000000000000000E+00    6.2190000000000012E+00    2.3995999999999999E+01
Au    2.0730000000000000E+00    0.0000000000000000E+00    2.3995999999999999E+01
Au    2.0730000000000000E+00    4.1459999999999999E+00    2.3995999999999999E+01
Au    4.1459999999999999E+00    2.0730000000000000E+00    2.3995999999999999E+01
Au    4.1459999999999999E+00    6.2190000000000012E+00    2.3995999999999999E+01
Au    6.2190000000000012E+00    0.0000000000000000E+00    2.3995999999999999E+01
Au    6.2190000000000012E+00    4.1459999999999999E+00    2.3995999999999999E+01
Au    0.0000000000000000E+00    0.0000000000000000E+00    2.6069000000000003E+01
Au    0.0000000000000000E+00    4.1459999999999999E+00    2.6069000000000003E+01
Au    2.0730000000000000E+00    2.0730000000000000E+00    2.6069000000000003E+01
Au    2.0730000000000000E+00    6.2190000000000012E+00    2.6069000000000003E+01
Au    4.1459999999999999E+00    0.0000000000000000E+00    2.6069000000000003E+01
Au    4.1459999999999999E+00    4.1459999999999999E+00    2.6069000000000003E+01
Au    6.2190000000000012E+00    2.0730000000000000E+00    2.6069000000000003E+01
Au    6.2190000000000012E+00    6.2190000000000012E+00    2.6069000000000003E+01
Au    0.0000000000000000E+00    2.0730000000000000E+00    2.8141999999999999E+01
Au    0.0000000000000000E+00    6.2190000000000012E+00    2.8141999999999999E+01
Au    2.0730000000000000E+00    0.0000000000000000E+00    2.8141999999999999E+01
Au    2.0730000000000000E+00    4.1459999999999999E+00    2.8141999999999999E+01
Au    4.1459999999999999E+00    2.0730000000000000E+00    2.8141999999999999E+01
Au    4.1459999999999999E+00    6.2190000000000012E+00    2.8141999999999999E+01
Au    6.2190000000000012E+00    0.0000000000000000E+00    2.8141999999999999E+01
Au    6.2190000000000012E+00    4.1459999999999999E+00    2.8141999999999999E+01
Au    0.0000000000000000E+00    0.0000000000000000E+00    3.0215000000000000E+01
Au    0.0000000000000000E+00    4.1459999999999999E+00    3.0215000000000000E+01
Au    2.0730000000000000E+00    2.0730000000000000E+00    3.0215000000000000E+01
Au    2.0730000000000000E+00    6.2190000000000012E+00    3.0215000000000000E+01
Au    4.1459999999999999E+00    0.0000000000000000E+00    3.0215000000000000E+01
Au    4.1459999999999999E+00    4.1459999999999999E+00    3.0215000000000000E+01
Au    6.2190000000000012E+00    2.0730000000000000E+00    3.0215000000000000E+01
Au    6.2190000000000012E+00    6.2190000000000012E+00    3.0215000000000000E+01
Au    0.0000000000000000E+00    2.0730000000000000E+00    3.2287999999999997E+01
Au    0.0000000000000000E+00    6.2190000000000012E+00    3.2287999999999997E+01
Au    2.0730000000000000E+00    0.0000000000000000E+00    3.2287999999999997E+01
Au    2.0730000000000000E+00    4.1459999999999999E+00    3.2287999999999997E+01
Au    4.1459999999999999E+00    2.0730000000000000E+00    3.2287999999999997E+01
Au    4.1459999999999999E+00    6.2190000000000012E+00    3.2287999999999997E+01
Au    6.2190000000000012E+00    0.0000000000000000E+00    3.2287999999999997E+01
Au    6.2190000000000012E+00    4.1459999999999999E+00    3.2287999999999997E+01
     &END COORD
     &KIND Au
       BASIS_SET SZV-MOLOPT-SR-GTH
       POTENTIAL GTH-PADE-q11
       &POTENTIAL
 1 0 10
  0.5900000000000000E+00 1  0.1160442790000000E+02
 3
  0.5211797500000001E+00 2  0.2538613590000000E+01 -0.1046136640000000E+01
  0.2701113200000000E+01
  0.6306130599999999E+00 2  0.3948527000000000E+00 -0.8695921300000000E+00
  0.2057830560000000E+01
  0.4407064300000000E+00 2 -0.4719069660000000E+01  0.7277708100000000E+00
 -0.1650429070000000E+01
         # Potential name:  GTH-PADE-Q11  for symbol:  AU
         # Potential read from the potential filename: GTH_POTENTIALS
       &END POTENTIAL
     &END KIND
     &KIND C
       BASIS_SET SZV-MOLOPT-SR-GTH
       ELEMENT C
       POTENTIAL GTH-PADE-q4
       &POTENTIAL
 2 2
  0.3488304500000000E+00 2 -0.8513771100000000E+01  0.1228432030000000E+01
 2
  0.3045532100000000E+00 1  0.9522841789999999E+01
  0.2326773000000000E+00 0
         # Potential name:  GTH-PADE-Q4  for symbol:  C
         # Potential read from the potential filename: GTH_POTENTIALS
       &END POTENTIAL
     &END KIND
     &KIND S
       BASIS_SET SZV-MOLOPT-SR-GTH
       ELEMENT S
       POTENTIAL GTH-PADE-q6
       &POTENTIAL
 2 4
  0.4200000000000000E+00 1 -0.6554491840000000E+01
 2
  0.3617566500000000E+00 2  0.7905302500000000E+01 -0.1731881300000000E+01
  0.4471698300000000E+01
  0.4052850200000000E+00 1  0.3866579000000000E+01
         # Potential name:  GTH-PADE-Q6  for symbol:  S
         # Potential read from the potential filename: GTH_POTENTIALS
       &END POTENTIAL
     &END KIND
     &KIND H
       BASIS_SET SZV-MOLOPT-SR-GTH
       ELEMENT H
       POTENTIAL GTH-PADE-q1
       &POTENTIAL
 1
  0.2000000000000000E+00 2 -0.4180236800000000E+01  0.7250748200000000E+00
 0
         # Potential name:  GTH-PADE-Q1  for symbol:  H
         # Potential read from the potential filename: GTH_POTENTIALS
       &END POTENTIAL
     &END KIND
     &TOPOLOGY
       COORD_FILE_NAME em.xyz
       COORD_FILE_FORMAT  XYZ
       NUMBER_OF_ATOMS  116
       MULTIPLE_UNIT_CELL  1 1 1
     &END TOPOLOGY
   &END SUBSYS
 &END FORCE_EVAL
