#
####################################################################################
##NOTICE:									  ##
## This file was created by Is_smg_ready.sh script automatically,2010-09-09       ##
## We do NOT ensure that it is the file what you are looking for.                 ##
## And therefore, change as you see fit!                                          ##
####################################################################################
#SpinOrbit                .true.
#NonCollinearSpin         .true.
#SpinPolarized            .true.


SystemName            Al3D-Al4-Al3D            # Descriptive name of the system
SystemLabel           mx          # Short name for naming files


# Species and atoms
NumberOfSpecies        1
NumberOfAtoms    80

%block ChemicalSpeciesLabel
1   13  Al
%endblock ChemicalSpeciesLabel


# Basis
%block PAO.Basis                 # Define Basis set
Al          2                    # Species label, number of l-shells
 n=3   0   1                         # n, l, Nzeta 
   6.111   
   1.000   
 n=3   1   1 P   1                   # n, l, Nzeta, Polarization, NzetaPol
   7.846   
   1.000   
%endblock PAO.Basis


%block Ps.lmax
  Al           2
%endblock Ps.lmax

LatticeConstant       1.0  Ang
%block LatticeVectors
  8.59030000    0.00000000    0.00000000
 -4.29515000    7.43941803    0.00000000
  0.0000000000  0.000000000  28.280505040
%endblock LatticeVectors

# the larger KCutOff, the more K-point use
# KgridCutoff          6.72 Ang
# KgridCutoff          20.72 Ang       
           
%block kgrid_Monkhorst_Pack
  4   0    0     0.5
  0   4    0     0.5
  0   0    1     0.0
%endblock kgrid_Monkhorst_Pack



xc.functional         GGA           # Exchange-correlation functional
xc.authors            PBE             # Exchange-correlation version


MeshCutoff          240. Ry         # Mesh cutoff. real space mesh 

# SCF options
MaxSCFIterations        1000         # Maximum number of SCF iter
DM.MixingWeight       0.02           # New DM amount for next SCF cycle
DM.Tolerance          1.d-4         # Tolerance in maximum difference
DM.UseSaveDM          T          # to use continuation files
                                                # between input and output DM
DM.NumberPulay         6

SolutionMethod        Diagon       # OrderN or Diagon
ElectronicTemperature  25 meV       # Temp. for Fermi smearing


# Atomic coordinates
AtomicCoordinatesFormat     Ang    
%block AtomicCoordinatesAndAtomicSpecies
    0.00000000    1.65318747    0.00000000   1  Al         1
    2.86340470    1.65318747    0.00000000   1  Al         2
    5.72689530    1.65318747    0.00000000   1  Al         3
   -1.43174530    4.13304308    0.00000000   1  Al         4
    1.43165940    4.13304308    0.00000000   1  Al         5
    4.29515000    4.13304308    0.00000000   1  Al         6
   -2.86344765    6.61282429    0.00000000   1  Al         7
   -0.00004295    6.61282429    0.00000000   1  Al         8
    2.86344765    6.61282429    0.00000000   1  Al         9
    1.43170235    0.82659374    2.33800000   1  Al        10
    4.29519295    0.82659374    2.33800000   1  Al        11
    7.15859765    0.82659374    2.33800000   1  Al        12
    0.00000000    3.30637495    2.33800000   1  Al        13
    2.86349060    3.30637495    2.33800000   1  Al        14
    5.72689530    3.30637495    2.33800000   1  Al        15
   -1.43174530    5.78623055    2.33800000   1  Al        16
    1.43174530    5.78623055    2.33800000   1  Al        17
    4.29515000    5.78623055    2.33800000   1  Al        18
    0.00000000    0.00000000    4.67600000   1  Al        19
    2.86343333    0.00000000    4.67600000   1  Al        20
    5.72686667    0.00000000    4.67600000   1  Al        21
   -1.43171667    2.47980601    4.67600000   1  Al        22
    1.43171667    2.47980601    4.67600000   1  Al        23
    4.29515000    2.47980601    4.67600000   1  Al        24
   -2.86343333    4.95961202    4.67600000   1  Al        25
    0.00000000    4.95961202    4.67600000   1  Al        26
    2.86343333    4.95961202    4.67600000   1  Al        27
    0.00000000    1.65318747    7.01400000   1  Al        28
    2.86340470    1.65318747    7.01400000   1  Al        29
    5.72689530    1.65318747    7.01400000   1  Al        30
   -1.43174530    4.13304308    7.01400000   1  Al        31
    1.43165940    4.13304308    7.01400000   1  Al        32
    4.29515000    4.13304308    7.01400000   1  Al        33
   -2.86344765    6.61282429    7.01400000   1  Al        34
   -0.00004295    6.61282429    7.01400000   1  Al        35
    2.86344765    6.61282429    7.01400000   1  Al        36
    1.43094319    0.79376054    9.25210665   1  Al        37
   -0.02832315    3.32273120    9.25062717   1  Al        38
    2.89146464    3.32349917    9.25206115   1  Al        39
    1.43248870    2.47937309   11.44371304   1  Al        40
    1.43182818    2.47974117   14.47433361   1  Al        41
    1.43220290    0.80177348   16.67197241   1  Al        42
   -0.02210668    3.31917801   16.67218631   1  Al        43
    2.88518055    3.31838432   16.67197736   1  Al        44
    0.00000000    0.00000000   18.92850504   1  Al        45
    2.86343333    0.00000000   18.92850504   1  Al        46
    5.72686667    0.00000000   18.92850504   1  Al        47
   -1.43171667    2.47980601   18.92850504   1  Al        48
    1.43171667    2.47980601   18.92850504   1  Al        49
    4.29515000    2.47980601   18.92850504   1  Al        50
   -2.86343333    4.95961202   18.92850504   1  Al        51
    0.00000000    4.95961202   18.92850504   1  Al        52
    2.86343333    4.95961202   18.92850504   1  Al        53
    0.00000000    1.65318747   21.26650504   1  Al        54
    2.86340470    1.65318747   21.26650504   1  Al        55
    5.72689530    1.65318747   21.26650504   1  Al        56
   -1.43174530    4.13304308   21.26650504   1  Al        57
    1.43165940    4.13304308   21.26650504   1  Al        58
    4.29515000    4.13304308   21.26650504   1  Al        59
   -2.86344765    6.61282429   21.26650504   1  Al        60
   -0.00004295    6.61282429   21.26650504   1  Al        61
    2.86344765    6.61282429   21.26650504   1  Al        62
    1.43170235    0.82659374   23.60450504   1  Al        63
    4.29519295    0.82659374   23.60450504   1  Al        64
    7.15859765    0.82659374   23.60450504   1  Al        65
    0.00000000    3.30637495   23.60450504   1  Al        66
    2.86349060    3.30637495   23.60450504   1  Al        67
    5.72689530    3.30637495   23.60450504   1  Al        68
   -1.43174530    5.78623055   23.60450504   1  Al        69
    1.43174530    5.78623055   23.60450504   1  Al        70
    4.29515000    5.78623055   23.60450504   1  Al        71
    0.00000000    0.00000000   25.94250504   1  Al        72
    2.86343333    0.00000000   25.94250504   1  Al        73
    5.72686667    0.00000000   25.94250504   1  Al        74
   -1.43171667    2.47980601   25.94250504   1  Al        75
    1.43171667    2.47980601   25.94250504   1  Al        76
    4.29515000    2.47980601   25.94250504   1  Al        77
   -2.86343333    4.95961202   25.94250504   1  Al        78
    0.00000000    4.95961202   25.94250504   1  Al        79
    2.86343333    4.95961202   25.94250504   1  Al        80
%endblock AtomicCoordinatesAndAtomicSpecies   

%block FinalAtomicCoordinatesAndAtomicSpecies
    0.00000000    1.65318747    0.00000000   1  Al         1
    2.86340470    1.65318747    0.00000000   1  Al         2
    5.72689530    1.65318747    0.00000000   1  Al         3
   -1.43174530    4.13304308    0.00000000   1  Al         4
    1.43165940    4.13304308    0.00000000   1  Al         5
    4.29515000    4.13304308    0.00000000   1  Al         6
   -2.86344765    6.61282429    0.00000000   1  Al         7
   -0.00004295    6.61282429    0.00000000   1  Al         8
    2.86344765    6.61282429    0.00000000   1  Al         9
    1.43170235    0.82659374    2.33800000   1  Al        10
    4.29519295    0.82659374    2.33800000   1  Al        11
    7.15859765    0.82659374    2.33800000   1  Al        12
    0.00000000    3.30637495    2.33800000   1  Al        13
    2.86349060    3.30637495    2.33800000   1  Al        14
    5.72689530    3.30637495    2.33800000   1  Al        15
   -1.43174530    5.78623055    2.33800000   1  Al        16
    1.43174530    5.78623055    2.33800000   1  Al        17
    4.29515000    5.78623055    2.33800000   1  Al        18
    0.00000000    0.00000000    4.67600000   1  Al        19
    2.86343333    0.00000000    4.67600000   1  Al        20
    5.72686667    0.00000000    4.67600000   1  Al        21
   -1.43171667    2.47980601    4.67600000   1  Al        22
    1.43171667    2.47980601    4.67600000   1  Al        23
    4.29515000    2.47980601    4.67600000   1  Al        24
   -2.86343333    4.95961202    4.67600000   1  Al        25
    0.00000000    4.95961202    4.67600000   1  Al        26
    2.86343333    4.95961202    4.67600000   1  Al        27
    0.00000000    1.65318747    7.01400000   1  Al        28
    2.86340470    1.65318747    7.01400000   1  Al        29
    5.72689530    1.65318747    7.01400000   1  Al        30
   -1.43174530    4.13304308    7.01400000   1  Al        31
    1.43165940    4.13304308    7.01400000   1  Al        32
    4.29515000    4.13304308    7.01400000   1  Al        33
   -2.86344765    6.61282429    7.01400000   1  Al        34
   -0.00004295    6.61282429    7.01400000   1  Al        35
    2.86344765    6.61282429    7.01400000   1  Al        36
    1.43232841    0.83142974    9.24689027   1  Al        37
    0.00336965    3.30376714    9.24677243   1  Al        38
    2.85909514    3.30429707    9.24667947   1  Al        39
    0.02652871    1.76220052   16.64578940   1  Al        40
    2.83328691    1.77211301   16.64863919   1  Al        41
    1.43528838   -0.75672646   16.58336019   1  Al        42
   -1.43144091    4.15553832   16.62710017   1  Al        43
    4.31338703    4.15055420   16.62955192   1  Al        44
    0.00000000    0.00000000   18.92850504   1  Al        45
    2.86343333    0.00000000   18.92850504   1  Al        46
    5.72686667    0.00000000   18.92850504   1  Al        47
   -1.43171667    2.47980601   18.92850504   1  Al        48
    1.43171667    2.47980601   18.92850504   1  Al        49
    4.29515000    2.47980601   18.92850504   1  Al        50
   -2.86343333    4.95961202   18.92850504   1  Al        51
    0.00000000    4.95961202   18.92850504   1  Al        52
    2.86343333    4.95961202   18.92850504   1  Al        53
    0.00000000    1.65318747   21.26650504   1  Al        54
    2.86340470    1.65318747   21.26650504   1  Al        55
    5.72689530    1.65318747   21.26650504   1  Al        56
   -1.43174530    4.13304308   21.26650504   1  Al        57
    1.43165940    4.13304308   21.26650504   1  Al        58
    4.29515000    4.13304308   21.26650504   1  Al        59
   -2.86344765    6.61282429   21.26650504   1  Al        60
   -0.00004295    6.61282429   21.26650504   1  Al        61
    2.86344765    6.61282429   21.26650504   1  Al        62
    1.43170235    0.82659374   23.60450504   1  Al        63
    4.29519295    0.82659374   23.60450504   1  Al        64
    7.15859765    0.82659374   23.60450504   1  Al        65
    0.00000000    3.30637495   23.60450504   1  Al        66
    2.86349060    3.30637495   23.60450504   1  Al        67
    5.72689530    3.30637495   23.60450504   1  Al        68
   -1.43174530    5.78623055   23.60450504   1  Al        69
    1.43174530    5.78623055   23.60450504   1  Al        70
    4.29515000    5.78623055   23.60450504   1  Al        71
    0.00000000    0.00000000   25.94250504   1  Al        72
    2.86343333    0.00000000   25.94250504   1  Al        73
    5.72686667    0.00000000   25.94250504   1  Al        74
   -1.43171667    2.47980601   25.94250504   1  Al        75
    1.43171667    2.47980601   25.94250504   1  Al        76
    4.29515000    2.47980601   25.94250504   1  Al        77
   -2.86343333    4.95961202   25.94250504   1  Al        78
    0.00000000    4.95961202   25.94250504   1  Al        79
    2.86343333    4.95961202   25.94250504   1  Al        80
%endblock FinalAtomicCoordinatesAndAtomicSpecies   



#ProcessorY  5
#BlockSize   15

%block GridCellSampling
  0.5  0.5   0.0
  0.5  0.0   0.5
  0.0  0.5   0.5
%endblock GridCellSampling

	
	
# ===========================================================
##For Smeagol-trans
InitTransport   True     #reset "nsc process" as siesta or not,'true' as siesta
EMTransport              T     #NEGF method or not
NSlices                  1    # the number of layers for x in mx
PeriodicTransp           T     #mx periodic calculation or not
SaveMemTranspK           F   # 'F' for lead's self-energy first calculated and saved in memeory; while 'T' for never saved in 
 			# memeory but need calculate every scf step,which results in much more time consumption
#UseLeadGF    T    #see manual
 		
#GF Integral Setup
NEnergReal                0     # E-points for NE
NEnergImCircle           16     # E-points for EQ-Circle
NEnergImLine             16      # E-points for EQ-Line
NPoles                   16      # E-points for EQ-Pole
Delta                    1.d-6
EnergLowestBound        -100.00  eV   # Absolute value


#Bias Setup
VInitial                 0.0 eV
VFinal                   0.0 eV
NIVPoints                0
%block SaveBiasSteps
  0
%endblock SaveBiasSteps

#Fock shift Control(!!!!Vary Every Time while Smeagol-trans!!!!)
HartreeLeadsBottom       -14.97563171   eV    # Matlab: VHplot('0.lead.VH')
HartreeLeadsLeft           0.000  Ang           #The mx's atomic z-coordinates of the corresponding 'HartreeLeadsBottom' position at left
HartreeLeadsRight          0.000  Ang    # The mx's atomic z-coordinates of the corresponding 'HartreeLeadsBottom' position at right

                                
##Transport Output Flags
TrCoefficients                 T   #generate '*.TRC' file or not
TransmissionOverk        T    #generate '*.TRC.k.up/down' file,containning infor about T(E,k)
NTransmPoints            1  
TRCScaleEf    T
InitTransmRange         -5.0 eV    #(!!!!Vary Every Time with respect to lead's Ef while Smeagol-trans!!!!)
FinalTransmRange         5.0 eV


SaveElectrostaticPotential    T
SaveRHO    T

FullRamp   T
MixHamiltonian     F
ReadHamiltonian    F
DM.UseSaveDM   T



#FullRamp              F     # Default value
#AtomLeftVcte              36     # Default value
#AtomRightVcte            100     # Default value
EM.SetEBD  T
#EM.ReadRhoDense   T
#EM.WriteRhoDense   T


EM.CalculateForces              T

#%block GeometryConstraints
#  position from 1 to 45
#  position from 50 to 94
#%endblock GeometryConstraints

WriteForces      T
WriteCoorXmol     T   # Write Atoms coordinates
WriteCoorStep   T
WriteMDXmol                     T
#WriteMDhistory                  T
WriteEigenvalues                F

#BS.Add           T
#BS.Method              1     # Default value
#BS.SubSystems 2
#%block BS.SubSystemsBoundaries
#1 99
#100 207
#%endblock BS.SubSystemsBoundaries
#BS.Delta 1.0e-4
Sigma.SVDTolZero  1.0d-7

%block GeometryConstraints
  position from 1 to 36
  position from -1 to -36
%endblock GeometryConstraints



# MD options
MD.TypeOfRun            neb         # Type of dynamics = neb
MD.NumNEBsteps          30          # Maximum Number of NEB steps
MD.NumOfImages          5           # Number of Images ( intermediate structure )
MD.Kspring              0.02        # Spring force; default works well
MD.IndexOfNEB           5           # n>0 => CI-NEB from nth step
                                    # n>NumNEBsteps => IT-NEB
                                    # n=-1 => bisection-NEB
NEB.UseBroyden          .true.      # .true.  Broyden optimizer
                                    # .false. projected Verlet (!!!underconstruction!!!)
NEB.SkipEdge            F      # Skip calculations of initial and 
                                    #  final states ; UseSaveNEB must be .ture.
MD.MaxForceTol          0.06 eV/Ang # Tolerance of force for each images
MD.UseSaveNEB           T      # You can start from arbitary continuations

