
#FDF: Opened INPUT_TMP            for input. Unit: 12

fdf-debug              0     # Default value
SystemName     Al3D-Al4-Al3D                                                                                                                       
SystemLabel     mx                                                                                                                                  
alloc_report_level              0     # Default value
user-basis              F     # Default value
user-basis-netcdf              F     # Default value
PAO.BasisSize     standard            # Default value
PAO.BasisType     split          # Default value
Number_of_species                        1

%block ChemicalSpeciesLabel                                                    
1   13  Al                                                                     
%endblock ChemicalSpeciesLabel                                                 
 

%block PAO.Basis                 # Define Basis set                            
Al          2                    # Species label, number of l-shells           
 n=3   0   1                         # n, l, Nzeta                             
   6.111                                                                       
   1.000                                                                       
 n=3   1   1 P   1                   # n, l, Nzeta, Polarization, NzetaPol     
   7.846                                                                       
   1.000                                                                       
%endblock PAO.Basis                                                            
 

%block Ps.lmax                                                                 
  Al           2                                                               
%endblock Ps.lmax                                                              
 
PS.SIC              F     # Default value
ProjectionMethod     Zeta     # Default value
SIC.Flavour     Pseudo     # Default value
SIC.Lambda         0.5000000000         # Default value
SIC.NoRelaxation              F     # Default value
WriteProjections              T     # Default value
ProjectionInSCF              F     # Default value
SIC.PopKgridFactor              1     # Default value
SIC.PopDMConv         0.1000000000E-03     # Default value
SIC.PopSmatSparsity         0.1000000000E-03     # Default value
SIC.ProjectionMode     SaveTime     # Default value
SIC.Npop              1     # Default value
SpinOrbit              F     # Default value
xc.functional     GGA                                                                                                                                 
xc.authors     PBE                                                                                                                                 
PAO.EnergyShift         0.2000000000E-01 Ry     # Default value
PAO.SplitNorm         0.1500000000         # Default value
PAO.SplitNorm         0.1500000000         # Default value
PAO.BasisType     split          # Default value
LatticeConstant          1.889726878           Bohr
# Above item originally: LatticeConstant          1.000000000     Ang       

%block LatticeVectors                                                          
  8.59030000    0.00000000    0.00000000                                       
 -4.29515000    7.43941803    0.00000000                                       
  0.0000000000  0.000000000  28.280505040                                      
%endblock LatticeVectors                                                       
 

%block LatticeVectors                                                          
  8.59030000    0.00000000    0.00000000                                       
 -4.29515000    7.43941803    0.00000000                                       
  0.0000000000  0.000000000  28.280505040                                      
%endblock LatticeVectors                                                       
 
AtomicCoordinatesFormat     Ang                                                                                                                                 
NumberOfAtoms                       80

%block AtomicCoordinatesAndAtomicSpecies                                       
    0.00000000    1.65318747    0.00000000   1  Al         1                   
    2.86340470    1.65318747    0.00000000   1  Al         2                   
    5.72689530    1.65318747    0.00000000   1  Al         3                   
   -1.43174530    4.13304308    0.00000000   1  Al         4                   
    1.43165940    4.13304308    0.00000000   1  Al         5                   
    4.29515000    4.13304308    0.00000000   1  Al         6                   
   -2.86344765    6.61282429    0.00000000   1  Al         7                   
   -0.00004295    6.61282429    0.00000000   1  Al         8                   
    2.86344765    6.61282429    0.00000000   1  Al         9                   
    1.43170235    0.82659374    2.33800000   1  Al        10                   
    4.29519295    0.82659374    2.33800000   1  Al        11                   
    7.15859765    0.82659374    2.33800000   1  Al        12                   
    0.00000000    3.30637495    2.33800000   1  Al        13                   
    2.86349060    3.30637495    2.33800000   1  Al        14                   
    5.72689530    3.30637495    2.33800000   1  Al        15                   
   -1.43174530    5.78623055    2.33800000   1  Al        16                   
    1.43174530    5.78623055    2.33800000   1  Al        17                   
    4.29515000    5.78623055    2.33800000   1  Al        18                   
    0.00000000    0.00000000    4.67600000   1  Al        19                   
    2.86343333    0.00000000    4.67600000   1  Al        20                   
    5.72686667    0.00000000    4.67600000   1  Al        21                   
   -1.43171667    2.47980601    4.67600000   1  Al        22                   
    1.43171667    2.47980601    4.67600000   1  Al        23                   
    4.29515000    2.47980601    4.67600000   1  Al        24                   
   -2.86343333    4.95961202    4.67600000   1  Al        25                   
    0.00000000    4.95961202    4.67600000   1  Al        26                   
    2.86343333    4.95961202    4.67600000   1  Al        27                   
    0.00000000    1.65318747    7.01400000   1  Al        28                   
    2.86340470    1.65318747    7.01400000   1  Al        29                   
    5.72689530    1.65318747    7.01400000   1  Al        30                   
   -1.43174530    4.13304308    7.01400000   1  Al        31                   
    1.43165940    4.13304308    7.01400000   1  Al        32                   
    4.29515000    4.13304308    7.01400000   1  Al        33                   
   -2.86344765    6.61282429    7.01400000   1  Al        34                   
   -0.00004295    6.61282429    7.01400000   1  Al        35                   
    2.86344765    6.61282429    7.01400000   1  Al        36                   
    1.43094319    0.79376054    9.25210665   1  Al        37                   
   -0.02832315    3.32273120    9.25062717   1  Al        38                   
    2.89146464    3.32349917    9.25206115   1  Al        39                   
    1.43248870    2.47937309   11.44371304   1  Al        40                   
    1.43182818    2.47974117   14.47433361   1  Al        41                   
    1.43220290    0.80177348   16.67197241   1  Al        42                   
   -0.02210668    3.31917801   16.67218631   1  Al        43                   
    2.88518055    3.31838432   16.67197736   1  Al        44                   
    0.00000000    0.00000000   18.92850504   1  Al        45                   
    2.86343333    0.00000000   18.92850504   1  Al        46                   
    5.72686667    0.00000000   18.92850504   1  Al        47                   
   -1.43171667    2.47980601   18.92850504   1  Al        48                   
    1.43171667    2.47980601   18.92850504   1  Al        49                   
    4.29515000    2.47980601   18.92850504   1  Al        50                   
   -2.86343333    4.95961202   18.92850504   1  Al        51                   
    0.00000000    4.95961202   18.92850504   1  Al        52                   
    2.86343333    4.95961202   18.92850504   1  Al        53                   
    0.00000000    1.65318747   21.26650504   1  Al        54                   
    2.86340470    1.65318747   21.26650504   1  Al        55                   
    5.72689530    1.65318747   21.26650504   1  Al        56                   
   -1.43174530    4.13304308   21.26650504   1  Al        57                   
    1.43165940    4.13304308   21.26650504   1  Al        58                   
    4.29515000    4.13304308   21.26650504   1  Al        59                   
   -2.86344765    6.61282429   21.26650504   1  Al        60                   
   -0.00004295    6.61282429   21.26650504   1  Al        61                   
    2.86344765    6.61282429   21.26650504   1  Al        62                   
    1.43170235    0.82659374   23.60450504   1  Al        63                   
    4.29519295    0.82659374   23.60450504   1  Al        64                   
    7.15859765    0.82659374   23.60450504   1  Al        65                   
    0.00000000    3.30637495   23.60450504   1  Al        66                   
    2.86349060    3.30637495   23.60450504   1  Al        67                   
    5.72689530    3.30637495   23.60450504   1  Al        68                   
   -1.43174530    5.78623055   23.60450504   1  Al        69                   
    1.43174530    5.78623055   23.60450504   1  Al        70                   
    4.29515000    5.78623055   23.60450504   1  Al        71                   
    0.00000000    0.00000000   25.94250504   1  Al        72                   
    2.86343333    0.00000000   25.94250504   1  Al        73                   
    5.72686667    0.00000000   25.94250504   1  Al        74                   
   -1.43171667    2.47980601   25.94250504   1  Al        75                   
    1.43171667    2.47980601   25.94250504   1  Al        76                   
    4.29515000    2.47980601   25.94250504   1  Al        77                   
   -2.86343333    4.95961202   25.94250504   1  Al        78                   
    0.00000000    4.95961202   25.94250504   1  Al        79                   
    2.86343333    4.95961202   25.94250504   1  Al        80                   
%endblock AtomicCoordinatesAndAtomicSpecies                                    
 
SpinPolarized              F     # Default value
NonCollinearSpin              F     # Default value
SpinOrbit              F     # Default value
LongOutput              F     # Default value
NumberOfSpecies                        1
WriteDenchar              F     # Default value
WriteMullikenPop              0     # Default value
MeshCutoff          240.0000000             Ry
# Above item originally: MeshCutoff          240.0000000     Ry        
NetCharge          0.000000000         # Default value
MaxSCFIterations                     1000
DM.NumberPulay                        6
DM.MixSCF1              F     # Default value
DM.PulayOnFile              F     # Default value
DM.MixingWeight         0.2000000000E-01
DM.NumberKick              0     # Default value
DM.KickMixingWeight         0.5000000000         # Default value
DM.Tolerance         0.1000000000E-03
UseSaveData              F     # Default value
DM.UseSaveDM              T
NeglNonOverlapInt              F     # Default value
SolutionMethod     Diagon                                                                                                                              
DiagMemory          2.000000000         # Default value
DiagScale          1.500000000         # Default value
TryMemoryIncrease              T     # Default value
ElectronicTemperature         0.1837449711E-02         Ry
# Above item originally: ElectronicTemperature          25.00000000     meV       
FixSpin              F     # Default value
ON.MaxNumIter           1000     # Default value
ON.etol         0.1000000000E-07     # Default value
ON.eta          0.000000000     Ry     # Default value
On.RcLWF          9.500000000     Bohr     # Default value
UseSaveData              F     # Default value
ON.UseSaveLWF              F     # Default value
ON.functional     kim               # Default value
ON.ChemicalPotential              F     # Default value
ON.ChemicalPotentialUse              F     # Default value
ON.ChemicalPotentialRc          9.500000000     Bohr     # Default value
ON.ChemicalPotentialTemperature         0.5000000075E-01 Ry     # Default value
ON.ChemicalPotentialOrder            100     # Default value
MD.VariableCell              F     # Default value
MD.TypeOfRun     neb                                                                                                                                 
MD.LengthTimeStep          1.000000000     fs     # Default value
MD.NumCGsteps              0     # Default value
MD.NumNEBsteps                       30
MD.MaxCGDispl         0.2000000000     Bohr     # Default value
MD.MaxForceTol         0.2333609261E-02    Ry/Bohr
# Above item originally: MD.MaxForceTol         0.6000000000E-01 eV/Ang    
MD.MaxStressTol         0.6797730000E-04 Ry/Bohr**3     # Default value
MD.InitialTimeStep              1     # Default value
MD.FinalTimeStep              1     # Default value
MD.Quench              F     # Default value
MD.InitialTemperature          0.000000000     K     # Default value
MD.NumOfImages                        5
MD.TargetTemperature          0.000000000     K     # Default value
MD.TargetPressure          0.000000000     Ry/Bohr**3     # Default value
MD.NoseMass          100.0000000     Ry*fs**2     # Default value
MD.ParrinelloRahmanMass          100.0000000     Ry*fs**2     # Default value
MD.AnnealOption     TemperatureAndPressure     # Default value
MD.TauRelax          100.0000000     fs     # Default value
MD.BulkModulus          100.0000000         # Default value
MD.FCDispl         0.4000000000E-01 Bohr     # Default value
MD.FCfirst              1     # Default value
MD.FClast             80     # Default value
Harris_functional              F     # Default value
WriteEDM              F     # Default value
WriteKpoints              F     # Default value
WriteForces              T
WriteDM              T     # Default value
WriteEigenvalues              F
WriteBands              F     # Default value
WriteKbands              F     # Default value
WriteCoorStep              T
WriteCoorInitial              T     # Default value
WriteMDhistory              F     # Default value
WriteMDXmol              T
UseSaveData              F     # Default value
MD.UseSaveXV              F     # Default value
MD.UseSaveNEB              T
NEB.SkipEdge              T
SaveHS              F     # Default value
FixAuxillaryCell              F     # Default value
ReInitialiseDM              F     # Default value
SignatureRecords              F     # Default value
MullikenInSCF              F     # Default value
BuildSuperCell              F     # Default value
ReadKPIN              F     # Default value
WriteSpinSCF              F     # Default value
WarningMinimumAtomicDistance          1.000000000     Bohr     # Default value
SpinTorque              F     # Default value
RotateSpin.Theta          0.000000000         # Default value
RotateSpin.Phi          0.000000000         # Default value
SystemLabel     mx                                                                                                                                  
MD.Kspring         0.2000000000E-01
MD.IndexOfNEB                        5
NEB.UseBroyden              T
MD.Broyden.History.Steps              5     # Default value
MD.Broyden.Cycle.On.Maxit              T     # Default value
MD.Broyden.Debug              F     # Default value
MD.Broyden.Initial.Inverse.Jacobian          1.000000000         # Default value
MD.LengthTimeStep         0.2400000000     fs     # Default value
SystemLabel     mx                                                                                                                                  
RcSpatial          0.000000000     Bohr     # Default value
processorY              8     # Default value
blocksize              8     # Default value

%block kgrid_Monkhorst_Pack                                                    
  4   0    0     0.5                                                           
  0   4    0     0.5                                                           
  0   0    1     0.0                                                           
%endblock kgrid_Monkhorst_Pack                                                 
 
LongOutput              F     # Default value
WriteWaveFunctions              F     # Default value
SystemLabel     mx                                                                                                                                  
EMTransport              T
NEnergReal                      128
NenergImCircle                       16
NenergImLine                       16
NPoles                       16
VInitial        -0.1616955746             Ry
# Above item originally: VInitial         -2.200000000     eV        
VFinal        -0.1616955746             Ry
# Above item originally: VFinal         -2.200000000     eV        
NIVPoints                        0
Delta         0.1000000000E-05
EnergLowestBound         -7.349798845             Ry
# Above item originally: EnergLowestBound         -100.0000000     eV        
SpinConfLeads              0     # Default value
AtomLeftVcte              1     # Default value
AtomRightVcte             80     # Default value
NSlices                        1
TrCoefficients              T
SetBulkTransvCell              F     # Default value
Sigma.DSigmaDE              F     # Default value
BulkTransvCellSize              3     # Default value
BulkTransvCellSizeX              3     # Default value
BulkTransvCellSizeY              3     # Default value
MixHamiltonian              F
ReadHamiltonian              F
FullRamp              T
NumberLinearMix              1     # Default value
SkipLastIter              F     # Default value
CB.WriteComplexBands              F     # Default value
CB.MaxKappa          0.000000000         # Default value
NTransmPoints                        1
InitTransmRange        -0.3674899422             Ry
# Above item originally: InitTransmRange         -5.000000000     eV        
FinalTransmRange         0.3674899422             Ry
# Above item originally: FinalTransmRange          5.000000000     eV        
VGate          0.000000000     Ry     # Default value
ZVGateR          0.000000000     Bohr     # Default value
ZVGateL          0.000000000     Bohr     # Default value
ZBroadeningG          1.000000000     Bohr     # Default value
BulkTransport              F     # Default value
InitTransport              T
BulkLead     LR     # Default value
Sigma.InvertH1              F     # Default value
Sigma.InvertV              F     # Default value
Sigma.CSVD              F     # Default value
Sigma.Dkimag         0.1000000000E-05     # Default value
Sigma.DSVDMax         0.5000000000E-11     # Default value
Sigma.DSVDMin         0.1000000000E-14     # Default value
Sigma.DMax         0.1000000000E-04     # Default value
Sigma.RNoise          1.000000000         # Default value
Sigma.SkipSVD          1000.000000         # Default value
Sigma.ComplexBands              F     # Default value
Sigma.SVDTolZero         0.1000000000E-06
Sigma.DOSVV              F     # Default value
TRC.LeadsDOS              F     # Default value
TRC.LeadsPDOS              F     # Default value
EM.LDOS              F     # Default value
EM.LDOS2              F     # Default value
EM.CurrentDensity              F     # Default value
TRC.EMDOS              F     # Default value
TRC.EMPDOS              F     # Default value
TRC.SpecOverK              F     # Default value
CBS.SubSystem              F     # Default value
CBS.PrintWaveFunction              F     # Default value
EM.OrderN              F     # Default value
EM.Timings              F     # Default value
EM.TimeReversal              T     # Default value
EM.LDOSLeadsProjection              0     # Default value

%block SaveBiasSteps                                                           
  0                                                                            
%endblock SaveBiasSteps                                                        
 
AtomicCoordinatesFormat     Ang                                                                                                                                 
AtomCoorFormatOut     Ang                        # Default value
LatticeConstant          1.889726878           Bohr
# Above item originally: LatticeConstant          1.000000000     Ang       
LDAUForces              T     # Default value
LDAU.units          1.000000000     Ry     # Default value
Print_ldau              T     # Default value
LDAU_METHOD              1     # Default value

%block SaveBiasSteps                                                           
  0                                                                            
%endblock SaveBiasSteps                                                        
 
xc.functional     GGA                                                                                                                                 
xc.authors     PBE                                                                                                                                 
Harris_functional              F     # Default value
DeltaWorkfunction          0.000000000     Ry     # Default value
WriteVNA              F     # Default value
PoissonMultigrid              F     # Default value
LatticeConstant          1.889726878           Bohr
# Above item originally: LatticeConstant          1.000000000     Ang       

%block LatticeVectors                                                          
  8.59030000    0.00000000    0.00000000                                       
 -4.29515000    7.43941803    0.00000000                                       
  0.0000000000  0.000000000  28.280505040                                      
%endblock LatticeVectors                                                       
 

%block LatticeVectors                                                          
  8.59030000    0.00000000    0.00000000                                       
 -4.29515000    7.43941803    0.00000000                                       
  0.0000000000  0.000000000  28.280505040                                      
%endblock LatticeVectors                                                       
 
DirectPhi              F     # Default value
HartreeLeadsLeft          0.000000000           Bohr
# Above item originally: HartreeLeadsLeft          0.000000000     Ang       
HartreeLeadsRight          0.000000000           Bohr
# Above item originally: HartreeLeadsRight          0.000000000     Ang       
HartreeLeadsBottom         -1.100678806             Ry
# Above item originally: HartreeLeadsBottom         -14.97563171     eV        
Sigma.PDOS              F     # Default value
Sigma.SkipRight              F     # Default value
EnergyGridType     Traditional     # Default value
AM.MaxDepth             15     # Default value
AM.NumberDivisions              9     # Default value
TypeOfIntegral     gauss-legendre     # Default value
SIGMA.Save              0     # Default value
Sigma.WriteToDisk              F     # Default value
BS.Add              F     # Default value
BS.Method              0     # Default value
BS.MiddleOrbital              0     # Default value
BS.Tolerance         0.1000000000E-04     # Default value
BS.Minimum          0.000000000         # Default value
BS.WriteTransmission              F     # Default value
Current.WriteTransmission              F     # Default value
Sigma.Method              1     # Default value
Sigma.EImag          0.000000000         # Default value
AM.DeltaInit         0.1000000000E-02     # Default value
AM.DeltaToDe          1.500000000         # Default value
AM.Criterium          2.000000000         # Default value
SetEnergyRange              F     # Default value
SetEmin         -1.000000000         # Default value
SetEmax          1.000000000         # Default value
BS.Delta         0.1000000000E-05     # Default value
Sigma.Tolab         0.1000000000E-05     # Default value
BS.TypeOfRun              0     # Default value
BS.Skip              1     # Default value
BS.ESkip              1     # Default value
BS.SetOccupation              1     # Default value
EM.NProcessorsInverse              1     # Default value
EM.NProcessorsDistributeMatrices              1     # Default value
EM.InverseSolver              1     # Default value
Sigma.Nx              1     # Default value
Sigma.Ny              1     # Default value
Sigma.OverwriteHS              T     # Default value
RotateSpinLeadsLeft.Theta          0.000000000         # Default value
RotateSpinLeadsLeft.Phi          0.000000000         # Default value
RotateSpinLeadsRight.Theta          0.000000000         # Default value
RotateSpinLeadsRight.Phi          0.000000000         # Default value
TransmissionOverK              T
TransmissionEmbed              T     # Default value
Sigma.WriteEV              F     # Default value
Sigma.SkipTransmission              F     # Default value
Sigma.WarnInOutput         0.1000000000E-04 Ry     # Default value
DeltaTransmission          0.000000000         # Default value
TRCDEAuto              F     # Default value
Sigma.CheckAccuracy              F     # Default value
Sigma.Write              F     # Default value
TRCDE          0.000000000     Ry     # Default value
TRCScaleEf              T
EM.CalculateForces              T
BS.Subsystems              2     # Default value
EM.OneKP              0     # Default value
PeriodicTransp              T
SystemLabel     mx                                                                                                                                  

%block SaveBiasSteps                                                           
  0                                                                            
%endblock SaveBiasSteps                                                        
 

%block SaveBiasSteps                                                           
  0                                                                            
%endblock SaveBiasSteps                                                        
 
LatticeConstant          1.889726878           Bohr
# Above item originally: LatticeConstant          1.000000000     Ang       

%block LatticeVectors                                                          
  8.59030000    0.00000000    0.00000000                                       
 -4.29515000    7.43941803    0.00000000                                       
  0.0000000000  0.000000000  28.280505040                                      
%endblock LatticeVectors                                                       
 

%block LatticeVectors                                                          
  8.59030000    0.00000000    0.00000000                                       
 -4.29515000    7.43941803    0.00000000                                       
  0.0000000000  0.000000000  28.280505040                                      
%endblock LatticeVectors                                                       
 
EM.OneKP              0     # Default value

%block SaveBiasSteps                                                           
  0                                                                            
%endblock SaveBiasSteps                                                        
 

%block SaveBiasSteps                                                           
  0                                                                            
%endblock SaveBiasSteps                                                        
 
LatticeConstant          1.889726878           Bohr
# Above item originally: LatticeConstant          1.000000000     Ang       

%block LatticeVectors                                                          
  8.59030000    0.00000000    0.00000000                                       
 -4.29515000    7.43941803    0.00000000                                       
  0.0000000000  0.000000000  28.280505040                                      
%endblock LatticeVectors                                                       
 

%block LatticeVectors                                                          
  8.59030000    0.00000000    0.00000000                                       
 -4.29515000    7.43941803    0.00000000                                       
  0.0000000000  0.000000000  28.280505040                                      
%endblock LatticeVectors                                                       
 
EM.OneKP              0     # Default value

%block SaveBiasSteps                                                           
  0                                                                            
%endblock SaveBiasSteps                                                        
 

%block SaveBiasSteps                                                           
  0                                                                            
%endblock SaveBiasSteps                                                        
 
LatticeConstant          1.889726878           Bohr