 # Version information for this restart file 
 # current date 2022-10-20 12:47:45.511
 # current working dir /work4/scd/scarf1157/work/testing/cp2k-smeagol/bdt/hollow-site/em-cp2k/geo_opt/dzp
 # Program compiled at                              Thu  6 Oct 11:48:07 BST 2022
 # Program compiled on                                     cn1065.scarf.rl.ac.uk
 # Program compiled for                                                    local
 # Source code revision number                                       git:8c0411e
 &GLOBAL
   EXTENDED_FFT_LENGTHS  T
   PRINT_LEVEL  MEDIUM
   PROJECT_NAME dft_wfn
   RUN_TYPE  GEO_OPT
 &END GLOBAL
 &MOTION
   &GEO_OPT
     OPTIMIZER  BFGS
     MAX_ITER  1000
     STEP_START_VAL  19
   &END GEO_OPT
   &PRINT
     &TRAJECTORY  ON
       FORMAT  XMOL
     &END TRAJECTORY
   &END PRINT
 &END MOTION
 &FORCE_EVAL
   METHOD  QS
   &DFT
     BASIS_SET_FILE_NAME BASIS_MOLOPT
     POTENTIAL_FILE_NAME GTH_POTENTIALS
     &SCF
       MAX_SCF  100
       EPS_SCF     9.9999999999999995E-08
       SCF_GUESS  ATOMIC
       ADDED_MOS  100
       &SMEAR  T
         METHOD  FERMI_DIRAC
         ELECTRONIC_TEMPERATURE     2.9300000000000000E+02
       &END SMEAR
       &MIXING  T
         METHOD  BROYDEN_MIXING
         ALPHA     2.9999999999999999E-01
         NBUFFER  8
       &END MIXING
       &PRINT
         &RESTART  SILENT
           FILENAME RESTART_0
         &END RESTART
       &END PRINT
     &END SCF
     &MGRID
       CUTOFF     4.0000000000000000E+02
     &END MGRID
     &XC
       DENSITY_CUTOFF     1.0000000000000000E-10
       GRADIENT_CUTOFF     1.0000000000000000E-10
       TAU_CUTOFF     1.0000000000000000E-10
       &XC_FUNCTIONAL  NO_SHORTCUT
         &PADE  T
         &END PADE
       &END XC_FUNCTIONAL
     &END XC
     &POISSON
       PERIODIC  XYZ
     &END POISSON
     &PRINT
       &MO_CUBES  ON
         NLUMO  1
         NHOMO  1
       &END MO_CUBES
       &E_DENSITY_CUBE  ON
       &END E_DENSITY_CUBE
       &HIRSHFELD  SILENT
         SHAPE_FUNCTION  DENSITY
       &END HIRSHFELD
     &END PRINT
   &END DFT
   &SUBSYS
     &CELL
       A     1.6685150000000000E+01    0.0000000000000000E+00    0.0000000000000000E+00
       B     0.0000000000000000E+00    1.6685150000000000E+01    0.0000000000000000E+00
       C     0.0000000000000000E+00    0.0000000000000000E+00    2.5602979999999999E+01
       PERIODIC  XYZ
       MULTIPLE_UNIT_CELL  1 1 1
     &END CELL
     &COORD
Au    1.0430110315576562E+00    1.0320374581310205E+00    1.0434325256847963E+00
Au    1.0427462602258355E+00    1.0596221465193940E+00    9.2261377711755088E+00
Au    1.0429256416781512E+00    3.1283888935323336E+00    3.0811536665595907E+00
Au    3.1365557021272958E+00    1.0334625655576093E+00    3.0864586376346259E+00
Au    3.1379887619102584E+00    3.1285289257312625E+00    1.0431752373507506E+00
Au    3.1097584576665183E+00    3.1287245360313101E+00    9.2264785116639416E+00
Au    1.0428937638515194E+00    1.0372940422423482E+00    5.1152408447021482E+00
Au    5.2270614971160834E+00    1.0320581402482709E+00    1.0433132043624191E+00
Au    5.1904226099724946E+00    1.0645425220404483E+00    9.2334639284189457E+00
Au    1.3543750770713684E+01    1.0320605097384159E+00    1.0434683927876545E+00
Au    1.3580499790043229E+01    1.0645904377747371E+00    9.2334751765981959E+00
Au    1.0430100199682186E+00    5.2249215055436569E+00    1.0430103183750392E+00
Au    1.0427427928336259E+00    5.1973656515066375E+00    9.2259681965762574E+00
Au    1.0429799981834817E+00    1.3547564054972456E+01    1.0433351370514936E+00
Au    1.0428050190377813E+00    1.3572847210497729E+01    9.2434965504243234E+00
Au    1.0428411535831319E+00    3.1283679351818803E+00    7.1560804581413970E+00
Au    5.2274362704885515E+00    3.1283610255842795E+00    3.0887202093084940E+00
Au    1.3543420327356502E+01    3.1283675562530426E+00    3.0887042590845888E+00
Au    1.0429523746868112E+00    7.3153818188541697E+00    3.0901917661646401E+00
Au    1.0429545591271772E+00    1.5626646678355643E+01    3.0907374561727829E+00
Au    3.1246011033390255E+00    1.0458261777676070E+00    7.1607448701823051E+00
Au    7.3117227255901840E+00    1.0294313517568441E+00    3.0992853976784511E+00
Au    1.5634424643771114E+01    1.0334944932945642E+00    3.0864527964805109E+00
Au    3.1365093861483975E+00    5.2233411620710299E+00    3.0860418325900634E+00
Au    3.1412714382986202E+00    1.3543175769957639E+01    3.1015207440046844E+00
Au    3.1321919164448833E+00    3.1283739439562517E+00    5.1140546306025012E+00
Au    7.3063497460803690E+00    3.1285252316132803E+00    1.0431733174866720E+00
Au    7.2824230833785615E+00    3.1289232451772073E+00    9.2402328758795953E+00
Au    1.5633009985274370E+01    3.1285083208341047E+00    1.0432756184685017E+00
Au    1.5661027579488923E+01    3.1287245961448447E+00    9.2264942617861685E+00
Au    3.1383277180545233E+00    7.3146193751539972E+00    1.0428992397257937E+00
Au    3.1083758580814815E+00    7.2784945266737351E+00    9.2342338010875888E+00
Au    3.1383394190463290E+00    1.5627465661546310E+01    1.0434527188033480E+00
Au    3.1086301249223869E+00    1.5663409860854292E+01    9.2346200614988252E+00
Au    1.0428857689645199E+00    5.2193962328736863E+00    5.1148110237260545E+00
Au    1.0428681391134591E+00    1.3550882285217758E+01    5.1326193442331842E+00
Au    5.2219530183114404E+00    1.0378575769587750E+00    5.1283845122291085E+00
Au    1.3548933053624454E+01    1.0378914909353116E+00    5.1282940716665362E+00
Au    5.2270976860354557E+00    5.2249535526802822E+00    1.0429682624830234E+00
Au    5.1906978232544168E+00    5.1931349197083359E+00    9.2330225719626480E+00
Au    1.3539008175718589E+01    1.3549507754507376E+01    1.0434639955840741E+00
Au    1.3603903749696098E+01    1.3605740256426268E+01    9.2597290162232841E+00
Au    1.3543721817515486E+01    5.2249307644824716E+00    1.0431030919221018E+00
Au    1.3580222230972989E+01    5.1930960513663686E+00    9.2330378421874997E+00
Au    5.2318248467801816E+00    1.3549457973875525E+01    1.0433410797264941E+00
Au    5.1663755957108721E+00    1.3606247017899832E+01    9.2599155829400086E+00
Au    1.0427961246863462E+00    7.2957743488077798E+00    7.1739330430443360E+00
Au    1.0428030711949539E+00    1.5646107258649678E+01    7.1745340231294552E+00
Au    5.2078573465460378E+00    3.1285053044834688E+00    7.1720908842226185E+00
Au    1.3563044811408204E+01    3.1285071338935295E+00    7.1720164386301031E+00
Au    5.2272657620386349E+00    7.3146744604989014E+00    3.1037207618404925E+00
Au    1.3543428278116965E+01    1.5627392610297242E+01    3.1042684007038139E+00
Au    1.3543575072811889E+01    7.3146243634870025E+00    3.1036575023272439E+00
Au    5.2274178536989595E+00    1.5627365001057408E+01    3.1043203233851218E+00
Au    3.1245221042439280E+00    5.2110644816483225E+00    7.1603732616031408E+00
Au    3.1213433032426599E+00    1.3552628859921484E+01    7.1901051923124424E+00
Au    7.3016471602611004E+00    1.0523983953303226E+00    7.1855217312360713E+00
Au    1.5646238720456463E+01    1.0458225469564049E+00    7.1607319684024011E+00
Au    7.3116160998333601E+00    5.2273720884230173E+00    3.0988354518732328E+00
Au    1.5629727890060515E+01    1.3543215814930322E+01    3.1014395201060547E+00
Au    1.5634483280816317E+01    5.2233045725864082E+00    3.0860207311286771E+00
Au    7.3134957239490337E+00    1.3542747031777139E+01    3.1207747540750774E+00
Au    3.1327635589199785E+00    7.3092740313448248E+00    5.1293174185258543E+00
Au    3.1328992542345104E+00    1.5632667467408274E+01    5.1298998802858460E+00
Au    7.3031608780699102E+00    3.1284490066927804E+00    5.1281122149292671E+00
Au    1.5638730133256132E+01    3.1283758365022849E+00    5.1140416291561701E+00
Au    7.3048734418023367E+00    7.3186126168329775E+00    1.0428957833930259E+00
Au    7.2480397384841213E+00    7.2482609583907873E+00    9.2531775205224100E+00
Au    1.5632704327777832E+01    1.5627556650248010E+01    1.0435453497799323E+00
Au    1.5661975881580384E+01    1.5663140985378860E+01    9.2345826257384473E+00
Au    1.5632706046018686E+01    7.3145318271030346E+00    1.0429712405682383E+00
Au    1.5662227942092139E+01    7.2787770150890596E+00    9.2342017736691417E+00
Au    7.3048589562323114E+00    1.5623484280534059E+01    1.0434686984891428E+00
Au    7.2469203867412171E+00    1.5695191437665342E+01    9.2541704774346840E+00
Au    1.0429886541555471E+00    9.3945411278535307E+00    1.0431015184161216E+00
Au    1.0428064150563370E+00    9.3688582783743684E+00    9.2432928494254654E+00
Au    9.3852909638035555E+00    1.0360866097680721E+00    1.0433926803114155E+00
Au    9.3855259491915461E+00    1.0661344579942127E+00    9.2510837161815669E+00
Au    1.0429819232667144E+00    1.1471061547858664E+01    3.1065407431533023E+00
Au    9.3853655315614937E+00    3.1283906976750431E+00    3.1015842248671133E+00
Au    3.1412515470030926E+00    9.3989696448928104E+00    3.1012071681456601E+00
Au    1.1458985950716000E+01    1.0294548704765452E+00    3.0992995046259488E+00
Au    3.1341345065279200E+00    1.1471023929565803E+01    1.0431800080935700E+00
Au    3.1060404083167126E+00    1.1470754059832135E+01    9.2579776568073520E+00
Au    1.1464378081275921E+01    3.1285115684120259E+00    1.0432430583626568E+00
Au    1.1488421570335497E+01    3.1289294089887387E+00    9.2401723962093651E+00
Au    1.0428658352320768E+00    9.3912062179291915E+00    5.1321931367573104E+00
Au    9.3852912310779146E+00    5.2209540866943245E+00    1.0430022335922369E+00
Au    9.3855272514262893E+00    5.1917033030149682E+00    9.2504616687183550E+00
Au    9.3852587469834976E+00    1.3542963286373862E+01    1.0434487003710800E+00
Au    9.3863337050776181E+00    1.3733491591832269E+01    9.3453001679951004E+00
Au    9.3853736409465558E+00    1.0277920962003697E+00    5.1552504988486163E+00
Au    5.2318494015702637E+00    9.3925814871605713E+00    1.0430177066530522E+00
Au    5.1656710429569790E+00    9.3348865773641467E+00    9.2595260646788358E+00
Au    1.3538970356154683E+01    9.3925027030327133E+00    1.0431612019301388E+00
Au    1.3604600980601113E+01    9.3354097621822287E+00    9.2593441643224921E+00
Au    1.0428676755003861E+00    1.1470971210732928E+01    7.1918466254802107E+00
Au    9.3853094570339000E+00    7.3101107212486101E+00    3.1066045588298472E+00
Au    9.3853068148459009E+00    1.5631921580948715E+01    3.1073597948714506E+00
Au    9.3853955490954366E+00    3.1286365644866123E+00    7.1856088449144453E+00
Au    5.2245483260120098E+00    1.1471140904427271E+01    3.1092707882196255E+00
Au    1.3546385591162363E+01    1.1471143697854940E+01    3.1090920517162934E+00
Au    3.1211671922420408E+00    9.3892960008454107E+00    7.1895892123602172E+00
Au    1.1459090971595037E+01    5.2273448577140300E+00    3.0988323872218553E+00
Au    1.1457192939356606E+01    1.3542804224041857E+01    3.1206748002385312E+00
Au    1.1469269785817808E+01    1.0524934886748174E+00    7.1854049086913694E+00
Au    7.3134408295686351E+00    9.3994337938577175E+00    3.1203102353490917E+00
Au    1.5629754339696662E+01    9.3989186172025647E+00    3.1011093110258452E+00
Au    3.1469307639505026E+00    1.1471121355207039E+01    5.1622946544994850E+00
Au    1.1465728182948828E+01    7.3185314191007436E+00    1.0429755038700343E+00
Au    1.1523303179939774E+01    7.2479998750458385E+00    9.2531402313878512E+00
Au    1.1465742202730549E+01    1.5623555560862338E+01    1.0435528223010666E+00
Au    1.1524420600673944E+01    1.5695466043692413E+01    9.2541268931566574E+00
Au    1.1467663655551659E+01    3.1284557654313336E+00    5.1280305400049118E+00
Au    7.3119301297383013E+00    1.1471011237682490E+01    1.0432812899049084E+00
Au    7.1325357219345618E+00    1.1468892163883996E+01    9.3778405868274799E+00
Au    1.5636981233501130E+01    1.1471011457480454E+01    1.0432724070102504E+00
Au    1.5664605712844924E+01    1.1470752141299887E+01    9.2579976201913059E+00
Au    5.2217998163474393E+00    5.2188939400978649E+00    5.1278753561186736E+00
Au    1.3539595050531489E+01    1.3547337681283608E+01    5.1677411168305829E+00
Au    1.3549090613352494E+01    5.2188641124223558E+00    5.1277825584668459E+00
Au    5.2313776245627421E+00    1.3547320285240565E+01    5.1680397670547009E+00
Au    5.2105092135032329E+00    7.2973678537282671E+00    7.1802762171567682E+00
Au    1.3560323155461910E+01    1.5644469910782522E+01    7.1808523212471913E+00
Au    1.3560475845353009E+01    7.2973648993644291E+00    7.1801137884691748E+00
Au    5.2106644878951638E+00    1.5644450777883970E+01    7.1810140089459065E+00
Au    7.3015382264614983E+00    5.2048614447016810E+00    7.1850005642736656E+00
Au    1.5649411122471616E+01    1.3552569459657411E+01    7.1901024639840081E+00
Au    1.5646305619626608E+01    5.2110757394465415E+00    7.1603647386529286E+00
Au    7.3234428357161754E+00    1.3530414942817226E+01    7.2685996142344118E+00
Au    7.3062618588275914E+00    7.3166537039439721E+00    5.1644241826690545E+00
Au    1.5638038116048662E+01    1.5632684480330221E+01    5.1297948081145961E+00
Au    1.5638162550019223E+01    7.3092545527879409E+00    5.1292048071977803E+00
Au    7.3063632498832005E+00    1.5625186544037192E+01    5.1654918331304023E+00
Au    5.2311026723043801E+00    9.3947606317679124E+00    5.1674328412518618E+00
Au    1.3539878689514712E+01    9.3947483119989688E+00    5.1671124758530151E+00
Au    9.3853742524237127E+00    5.2289942671902319E+00    5.1547063532503454E+00
Au    9.3853396799874211E+00    1.3555570961608632E+01    5.1816973727378421E+00
Au    5.2310121841500523E+00    1.1470993083991161E+01    7.2503588095621287E+00
Au    1.3539963278679320E+01    1.1470995930803419E+01    7.2498472404507632E+00
Au    9.3855238067079156E+00    7.3061167717669164E+00    7.2328687075873788E+00
Au    9.3855197625832751E+00    1.5636185859948354E+01    7.2341141618076596E+00
Au    7.3226715927721129E+00    9.4110722884032771E+00    7.2664165615573850E+00
Au    1.5649578988821599E+01    9.3893555840720211E+00    7.1895819904383789E+00
Au    1.1469383808933593E+01    5.2047813605651827E+00    7.1848848244542882E+00
Au    1.1447705980314415E+01    1.3530688425897008E+01    7.2677944260056719E+00
Au    7.3011709615633489E+00    1.1471230305692785E+01    5.1826625160286879E+00
Au    1.5624112986408988E+01    1.1471122400823011E+01    5.1621526186765561E+00
Au    1.1464564963693102E+01    7.3165516569188380E+00    5.1642536979583111E+00
Au    1.1464459080555770E+01    1.5625286886186318E+01    5.1653212882241926E+00
Au    9.3852625937490881E+00    9.3990551123143504E+00    1.0431307519913842E+00
Au    9.3863322764976704E+00    9.2134955016313302E+00    9.3416710432938856E+00
Au    9.3853245655310964E+00    1.1471146439143361E+01    3.1312732847607241E+00
Au    1.1457242008797976E+01    9.3993776178292912E+00    3.1202288140972994E+00
Au    1.1458680938496286E+01    1.1471002143621241E+01    1.0433554529190068E+00
Au    1.1636280187030238E+01    1.1468908810514682E+01    9.3764106908893137E+00
Au    9.3853380441361232E+00    9.3866747008752007E+00    5.1808268075658237E+00
Au    9.3854098859655224E+00    1.1471247282046415E+01    7.2452281984281619E+00
Au    1.1448483995186818E+01    9.4108030611918121E+00    7.2656131400214452E+00
Au    1.1469653865691317E+01    1.1471220032924110E+01    5.1822786739904600E+00
S    9.3782273880863496E+00    1.1458469136166341E+01    1.6999013245875574E+01
C    9.3783415529738079E+00    1.1461819627696194E+01    1.5231258893383114E+01
C    8.1710925348259522E+00    1.1464342865864310E+01    1.4536782815787708E+01
C    1.0586598612769720E+01    1.1464539358928967E+01    1.4538457392492960E+01
S    9.3819590837190638E+00    1.1477200614805023E+01    1.0692293109293955E+01
C    9.3803635669324485E+00    1.1472153188593424E+01    1.2460195557269053E+01
C    1.0587559529857188E+01    1.1469822897906502E+01    1.3154987593984115E+01
C    8.1722278187616162E+00    1.1469627142006859E+01    1.3153271519620771E+01
H    7.2299376221832503E+00    1.1462686995253492E+01    1.5090374915382242E+01
H    1.1527012345413551E+01    1.1462982583868628E+01    1.5093401074777519E+01
H    1.1528808689746404E+01    1.1472381408339670E+01    1.2601542913127233E+01
H    7.2318760192455072E+00    1.1472090610316579E+01    1.2598254415862357E+01
Au    1.0425688030907461E+00    1.0595424493167724E+00    1.8463750829332220E+01
Au    1.0428660307372424E+00    3.1286014562202320E+00    2.0533455296751896E+01
Au    3.1245354967462449E+00    1.0458400502885157E+00    2.0529115734046446E+01
Au    3.1097444735025843E+00    3.1280609271961133E+00    1.8463189341171674E+01
Au    1.0429273063242279E+00    1.0375965382013566E+00    2.2574585522919286E+01
Au    5.1909698937768329E+00    1.0634762939363052E+00    1.8456686346253669E+01
Au    1.3580047775654284E+01    1.0637245971040623E+00    1.8456858386384923E+01
Au    1.0425701881645895E+00    5.1973002955727603E+00    1.8463568190965916E+01
Au    1.0425724963813012E+00    1.3573196783294676E+01    1.8446481674481564E+01
Au    1.0429527721885976E+00    3.1285907482544815E+00    2.4608230591762435E+01
Au    5.2078945957106573E+00    3.1283636342556749E+00    2.0517401876661250E+01
Au    1.3563062580679693E+01    3.1283701650688283E+00    2.0517805562197324E+01
Au    1.0427280809623278E+00    7.2960583995776558E+00    2.0515063901436889E+01
Au    1.0427253911212220E+00    1.5646316901213385E+01    2.0515785412999477E+01
Au    3.1364861985553252E+00    1.0336646178505084E+00    2.4603253787050111E+01
Au    7.3016240366753671E+00    1.0519041812410534E+00    2.0504596355876828E+01
Au    1.5646283768474872E+01    1.0458371857878184E+00    2.0529307981817180E+01
Au    3.1245991460373359E+00    5.2111385566758006E+00    2.0528734541800514E+01
Au    3.1209826292120333E+00    1.3552798532373574E+01    2.0500091702115085E+01
Au    3.1322231024201836E+00    3.1286118396224221E+00    2.2575229708972529E+01
Au    7.2825244685206876E+00    3.1279063716518771E+00    1.8449506845004056E+01
Au    1.5660981846002345E+01    3.1280614477718900E+00    1.8463263150088594E+01
Au    3.1084354321027781E+00    7.2786015463001590E+00    1.8455029856587760E+01
Au    3.1080697808070186E+00    1.5663745651109478E+01    1.8455408972456208E+01
Au    1.0429229945532863E+00    5.2197018642915127E+00    2.2574152634047316E+01
Au    1.0428457196379939E+00    1.3550914821833336E+01    2.2557400893385967E+01
Au    5.2217707057321681E+00    1.0380796737058555E+00    2.2561536631031757E+01
Au    1.3549169639552614E+01    1.0381661769692527E+00    2.2561931592794760E+01
Au    5.1903007744215826E+00    5.1922826631024197E+00    1.8456178604964098E+01
Au    1.3604464916749178E+01    1.3606785754864042E+01    1.8430606965560507E+01
Au    1.3580745191874129E+01    5.1920591395384026E+00    1.8456337799768118E+01
Au    5.1648597755098988E+00    1.3608025462641761E+01    1.8429948254673423E+01
Au    1.0430133471826517E+00    7.3154147615734697E+00    2.4598589847712432E+01
Au    1.0430100283498476E+00    1.5626757909855650E+01    2.4599196105338855E+01
Au    5.2273922811150060E+00    3.1286768834847623E+00    2.4600488151896165E+01
Au    1.3543485788338280E+01    3.1286654562425986E+00    2.4600782810236201E+01
Au    5.2107605797794632E+00    7.2978297154090761E+00    2.0508397676955052E+01
Au    1.3560513075419504E+01    1.5644810095413733E+01    2.0509878099025347E+01
Au    1.3560343515304632E+01    7.2977431901196566E+00    2.0508934233745315E+01
Au    5.2105811972749194E+00    1.5644728634505606E+01    2.0509348222701828E+01
Au    3.1365936915989061E+00    5.2235406433405140E+00    2.4602778219760214E+01
Au    3.1412617009998240E+00    1.3543091990950254E+01    2.4588106912075503E+01
Au    7.3115134598042664E+00    1.0296369961426464E+00    2.4590545399038643E+01
Au    1.5634567524125966E+01    1.0337343996594199E+00    2.4603487065483112E+01
Au    7.3016658811462651E+00    5.2045148476745693E+00    2.0504095432166618E+01
Au    1.5649501843868883E+01    1.3552736772504240E+01    2.0500296220620417E+01
Au    1.5646229007266840E+01    5.2111409738874128E+00    2.0528930654959744E+01
Au    7.3225526784683552E+00    1.3531004392889912E+01    2.0423170538545641E+01
Au    3.1329279167103796E+00    7.3094784168382203E+00    2.2559401995437653E+01
Au    3.1327512805339639E+00    1.5632830114806485E+01    2.2560114976591326E+01
Au    7.3030871038945175E+00    3.1284880325056927E+00    2.2561306213889498E+01
Au    1.5638793787886733E+01    3.1286075274104439E+00    2.2575452242003198E+01
Au    7.2466729944116208E+00    7.2464620762200509E+00    1.8435324495344013E+01
Au    1.5662024926957979E+01    1.5663203046723904E+01    1.8455660854623254E+01
Au    1.5661669943428597E+01    7.2791500609852680E+00    1.8455274449932823E+01
Au    7.2487027218902060E+00    1.5693208968125841E+01    1.8436630317477405E+01
Au    1.0425760860049291E+00    9.3692491284929496E+00    1.8446213362359998E+01
Au    9.3856774272991839E+00    1.0650843244586041E+00    1.8439348927213075E+01
Au    1.0427665552254850E+00    1.1471068972452429E+01    2.0497880625694645E+01
Au    9.3854068215990427E+00    3.1283104759824942E+00    2.0504152567863187E+01
Au    3.1212988315666959E+00    9.3895508306424702E+00    2.0499413877958137E+01
Au    1.1469362470600293E+01    1.0520910790218683E+00    2.0504980544562851E+01
Au    3.1056967501697130E+00    1.1471479445035481E+01    1.8431610933377701E+01
Au    1.1488451556430114E+01    3.1279272077240838E+00    1.8449687108727069E+01
Au    1.0428536313610064E+00    9.3911697963395397E+00    2.2556863385590912E+01
Au    9.3856775286703780E+00    5.1905791653818856E+00    1.8438706085863448E+01
Au    9.3874829258200219E+00    1.3727120000546861E+01    1.8349278129854152E+01
Au    9.3853194533955229E+00    1.0280228915496783E+00    2.2535051657482011E+01
Au    5.1660504724272593E+00    9.3357892746299260E+00    1.8429488318064806E+01
Au    1.3603288934593099E+01    9.3370227957037830E+00    1.8430153162933273E+01
Au    1.0430339755459412E+00    1.1471023024457255E+01    2.4582878675449471E+01
Au    9.3855549944129528E+00    7.3058460563993703E+00    2.0455372060234925E+01
Au    9.3855520005143411E+00    1.5636104312822638E+01    2.0457291131942544E+01
Au    9.3853472297178069E+00    3.1286824086234168E+00    2.4587812144737821E+01
Au    5.2308300195577369E+00    1.1471215161453040E+01    2.0438936711031364E+01
Au    1.3539974481525856E+01    1.1471207258214470E+01    2.0440184550065677E+01
Au    3.1413069585954432E+00    9.3988606182166272E+00    2.4587757096128477E+01
Au    1.1469329680525561E+01    5.2043336752853184E+00    2.0504479560322697E+01
Au    1.1448889242825881E+01    1.3531717858713813E+01    2.0425256370448313E+01
Au    1.1459137392788767E+01    1.0296781656684590E+00    2.4590717573179450E+01
Au    7.3237990500061914E+00    9.4120885273784527E+00    2.0419676538063449E+01
Au    1.5649192547949092E+01    9.3896067811979176E+00    2.0499620799720994E+01
Au    3.1469961169989715E+00    1.1470921524823927E+01    2.2527223433885059E+01
Au    1.1525246523487432E+01    7.2457941871212652E+00    1.8435540859926267E+01
Au    1.1523197654413496E+01    1.5693866709475133E+01    1.8436844553100549E+01
Au    1.1467705749427521E+01    3.1284835396661825E+00    2.2561605963699410E+01
Au    7.1307469785953961E+00    1.1474857882750420E+01    1.8310909678659460E+01
Au    1.5664418543390104E+01    1.1471478057533304E+01    1.8431841389625419E+01
Au    5.2219637009805782E+00    5.2191507426454473E+00    2.2560875885421513E+01
Au    1.3540002666871402E+01    1.3547313919133856E+01    2.2522936898128517E+01
Au    1.3548987155826952E+01    5.2190553597266565E+00    2.2561279520263710E+01
Au    5.2310952953747085E+00    1.3547236521908623E+01    2.2522045883563457E+01
Au    5.2274179530062339E+00    7.3147780912978373E+00    2.4584862749715874E+01
Au    1.3543629608756351E+01    1.5627499841866834E+01    2.4585991888824637E+01
Au    1.3543430053742336E+01    7.3146486502084089E+00    2.4585249196801371E+01
Au    5.2272216377284986E+00    1.5627384406294656E+01    2.4585605291824880E+01
Au    7.3116692339423253E+00    5.2275792456817971E+00    2.4589943608014682E+01
Au    1.5629808896137924E+01    1.3543156692623800E+01    2.4588433097759456E+01
Au    1.5634463581816576E+01    5.2234538180579708E+00    2.4603004056155694E+01
Au    7.3133826775474375E+00    1.3542491645776009E+01    2.4569126662320453E+01
Au    7.3063729543779763E+00    7.3171415766536585E+00    2.2523793841227555E+01
Au    1.5638246969976260E+01    1.5632900073124922E+01    2.2560481065401529E+01
Au    1.5638077708178402E+01    7.3093971163250551E+00    2.2559776614572037E+01
Au    7.3062416603014952E+00    1.5625383323257923E+01    2.2525272311829003E+01
Au    5.2315440513228806E+00    9.3948706411367287E+00    2.2521190213867733E+01
Au    1.3539535537557978E+01    9.3947633271401472E+00    2.2522076321618403E+01
Au    9.3853164218812335E+00    5.2292815782628121E+00    2.2534323947706053E+01
Au    9.3851928138199590E+00    1.3555398520063450E+01    2.2509014511935000E+01
Au    5.2245929678857888E+00    1.1470855274921746E+01    2.4580022968362286E+01
Au    1.3546361514363227E+01    1.1470839241726198E+01    2.4580603111708225E+01
Au    9.3852353264249349E+00    7.3102695567526359E+00    2.4581932836349619E+01
Au    9.3852374303543940E+00    1.5631989930713621E+01    2.4582971491326660E+01
Au    7.3135187374669091E+00    9.3993848250647254E+00    2.4568549003284286E+01
Au    1.5629762961728757E+01    9.3987865109245305E+00    2.4588090955055499E+01
Au    1.1458978408574781E+01    5.2275255614730431E+00    2.4590124301392208E+01
Au    1.1457199806725145E+01    1.3542609267401849E+01    2.4569469145903316E+01
Au    7.3010514766302999E+00    1.1470734310022351E+01    2.2506581694624380E+01
Au    1.5624114469926315E+01    1.1470912252328642E+01    2.2527642624963036E+01
Au    1.1464417624569323E+01    7.3168623295309176E+00    2.2524317220081262E+01
Au    1.1464547717159748E+01    1.5625662215083983E+01    2.2525792716424554E+01
Au    9.3874992324812467E+00    9.2063351766161521E+00    1.8343365140779607E+01
Au    9.3853136543184768E+00    1.1470743040711184E+01    2.0444562076729646E+01
Au    1.1447629027726522E+01    9.4113768907194082E+00    2.0421758838945017E+01
Au    1.1635091114844618E+01    1.1474843904303832E+01    1.8314351956417003E+01
Au    9.3851934915749595E+00    9.3865005666493797E+00    2.2507592777635573E+01
Au    9.3852349979632983E+00    1.1470857634713484E+01    2.4558249091128008E+01
Au    1.1457061195972983E+01    9.3992552416152222E+00    2.4568876707283518E+01
Au    1.1469644392040365E+01    1.1470723204723297E+01    2.2507520978887644E+01
     &END COORD
     &KIND Au
       BASIS_SET SZV-MOLOPT-SR-GTH
       POTENTIAL GTH-PADE-q11
       &POTENTIAL
 1 0 10
  0.5900000000000000E+00 1  0.1160442790000000E+02
 3
  0.5211797500000001E+00 2  0.2538613590000000E+01 -0.1046136640000000E+01
  0.2701113200000000E+01
  0.6306130599999999E+00 2  0.3948527000000000E+00 -0.8695921300000000E+00
  0.2057830560000000E+01
  0.4407064300000000E+00 2 -0.4719069660000000E+01  0.7277708100000000E+00
 -0.1650429070000000E+01
         # Potential name:  GTH-PADE-Q11  for symbol:  AU
         # Potential read from the potential filename: GTH_POTENTIALS
       &END POTENTIAL
     &END KIND
     &KIND C
       BASIS_SET DZVP-MOLOPT-SR-GTH
       ELEMENT C
       POTENTIAL GTH-PADE-q4
       &POTENTIAL
 2 2
  0.3488304500000000E+00 2 -0.8513771100000000E+01  0.1228432030000000E+01
 2
  0.3045532100000000E+00 1  0.9522841789999999E+01
  0.2326773000000000E+00 0
         # Potential name:  GTH-PADE-Q4  for symbol:  C
         # Potential read from the potential filename: GTH_POTENTIALS
       &END POTENTIAL
     &END KIND
     &KIND S
       BASIS_SET DZVP-MOLOPT-SR-GTH
       ELEMENT S
       POTENTIAL GTH-PADE-q6
       &POTENTIAL
 2 4
  0.4200000000000000E+00 1 -0.6554491840000000E+01
 2
  0.3617566500000000E+00 2  0.7905302500000000E+01 -0.1731881300000000E+01
  0.4471698300000000E+01
  0.4052850200000000E+00 1  0.3866579000000000E+01
         # Potential name:  GTH-PADE-Q6  for symbol:  S
         # Potential read from the potential filename: GTH_POTENTIALS
       &END POTENTIAL
     &END KIND
     &KIND H
       BASIS_SET DZVP-MOLOPT-SR-GTH
       ELEMENT H
       POTENTIAL GTH-PADE-q1
       &POTENTIAL
 1
  0.2000000000000000E+00 2 -0.4180236800000000E+01  0.7250748200000000E+00
 0
         # Potential name:  GTH-PADE-Q1  for symbol:  H
         # Potential read from the potential filename: GTH_POTENTIALS
       &END POTENTIAL
     &END KIND
     &TOPOLOGY
       COORD_FILE_NAME em.xyz
       COORD_FILE_FORMAT  XYZ
       NUMBER_OF_ATOMS  300
       MULTIPLE_UNIT_CELL  1 1 1
       &CENTER_COORDINATES  T
       &END CENTER_COORDINATES
     &END TOPOLOGY
   &END SUBSYS
   &PRINT
     &FORCES  ON
     &END FORCES
   &END PRINT
 &END FORCE_EVAL
