 # Version information for this restart file 
 # current date 2023-02-22 11:30:30.141
 # current working dir /work4/scd/scarf1157/work/testing/cp2k-smeagol/bdt/cp2k/hollow-site/transport-cp2k/5-4/geometry-ordered/3x3-4/sz/bulk_layers-4/geo_opt/dzvp/Au-S-2.65_dft_cg
 # Program compiled at                              Thu 26 Jan 13:39:53 GMT 2023
 # Program compiled on                                     cn1108.scarf.rl.ac.uk
 # Program compiled for                                                    local
 # Source code revision number                                       git:1ef701d
 &GLOBAL
   EXTENDED_FFT_LENGTHS  T
   PRINT_LEVEL  MEDIUM
   PROJECT_NAME dft_wfn
   RUN_TYPE  GEO_OPT
 &END GLOBAL
 &MOTION
   &GEO_OPT
     OPTIMIZER  CG
     MAX_ITER  1000
     STEP_START_VAL  4
   &END GEO_OPT
   &CONSTRAINT
     &FIXED_ATOMS
       LIST  1..40 76..116
     &END FIXED_ATOMS
   &END CONSTRAINT
   &PRINT
     &TRAJECTORY  ON
       FORMAT  XMOL
     &END TRAJECTORY
   &END PRINT
 &END MOTION
 &FORCE_EVAL
   METHOD  QS
   &DFT
     BASIS_SET_FILE_NAME BASIS_MOLOPT
     POTENTIAL_FILE_NAME GTH_POTENTIALS
     &SCF
       MAX_SCF  100
       EPS_SCF     9.9999999999999995E-08
       SCF_GUESS  ATOMIC
       ADDED_MOS  100
       &SMEAR  T
         METHOD  FERMI_DIRAC
         ELECTRONIC_TEMPERATURE     2.9300000000000000E+02
       &END SMEAR
       &MIXING  T
         METHOD  BROYDEN_MIXING
         ALPHA     2.9999999999999999E-01
         NBUFFER  8
       &END MIXING
       &PRINT
         &RESTART  SILENT
           FILENAME RESTART_0
         &END RESTART
       &END PRINT
     &END SCF
     &MGRID
       CUTOFF     4.0000000000000000E+02
     &END MGRID
     &XC
       DENSITY_CUTOFF     1.0000000000000000E-10
       GRADIENT_CUTOFF     1.0000000000000000E-10
       TAU_CUTOFF     1.0000000000000000E-10
       &XC_FUNCTIONAL  NO_SHORTCUT
         &PADE  T
         &END PADE
       &END XC_FUNCTIONAL
     &END XC
     &POISSON
       PERIODIC  XYZ
     &END POISSON
     &KPOINTS
       SCHEME MONKHORST-PACK 2 2 1
       SYMMETRY  F
       FULL_GRID  T
       VERBOSE  T
       EPS_GEO     1.0000000000000000E-08
       PARALLEL_GROUP_SIZE  0
     &END KPOINTS
     &PRINT
       &E_DENSITY_CUBE  ON
         STRIDE  2 2 2
       &END E_DENSITY_CUBE
       &V_HARTREE_CUBE  SILENT
         STRIDE  2 2 2
       &END V_HARTREE_CUBE
       &HIRSHFELD  SILENT
         SHAPE_FUNCTION  DENSITY
       &END HIRSHFELD
     &END PRINT
   &END DFT
   &SUBSYS
     &CELL
       A     8.2919999999999998E+00    0.0000000000000000E+00    0.0000000000000000E+00
       B     0.0000000000000000E+00    8.2919999999999998E+00    0.0000000000000000E+00
       C     0.0000000000000000E+00    0.0000000000000000E+00    3.4524000000000001E+01
       PERIODIC  XYZ
       MULTIPLE_UNIT_CELL  1 1 1
     &END CELL
     &COORD
Au    0.0000000000000000E+00    0.0000000000000000E+00    0.0000000000000000E+00
Au    0.0000000000000000E+00    4.1459999999999999E+00    0.0000000000000000E+00
Au    2.0730000000000000E+00    2.0730000000000000E+00    0.0000000000000000E+00
Au    2.0730000000000000E+00    6.2190000000000012E+00    0.0000000000000000E+00
Au    4.1459999999999999E+00    0.0000000000000000E+00    0.0000000000000000E+00
Au    4.1459999999999999E+00    4.1459999999999999E+00    0.0000000000000000E+00
Au    6.2190000000000012E+00    2.0730000000000000E+00    0.0000000000000000E+00
Au    6.2190000000000012E+00    6.2190000000000012E+00    0.0000000000000000E+00
Au    0.0000000000000000E+00    2.0730000000000000E+00    2.0730000000000000E+00
Au    0.0000000000000000E+00    6.2190000000000012E+00    2.0730000000000000E+00
Au    2.0730000000000000E+00    0.0000000000000000E+00    2.0730000000000000E+00
Au    2.0730000000000000E+00    4.1459999999999999E+00    2.0730000000000000E+00
Au    4.1459999999999999E+00    2.0730000000000000E+00    2.0730000000000000E+00
Au    4.1459999999999999E+00    6.2190000000000012E+00    2.0730000000000000E+00
Au    6.2190000000000012E+00    0.0000000000000000E+00    2.0730000000000000E+00
Au    6.2190000000000012E+00    4.1459999999999999E+00    2.0730000000000000E+00
Au    0.0000000000000000E+00    0.0000000000000000E+00    4.1459999999999999E+00
Au    0.0000000000000000E+00    4.1459999999999999E+00    4.1459999999999999E+00
Au    2.0730000000000000E+00    2.0730000000000000E+00    4.1459999999999999E+00
Au    2.0730000000000000E+00    6.2190000000000012E+00    4.1459999999999999E+00
Au    4.1459999999999999E+00    0.0000000000000000E+00    4.1459999999999999E+00
Au    4.1459999999999999E+00    4.1459999999999999E+00    4.1459999999999999E+00
Au    6.2190000000000012E+00    2.0730000000000000E+00    4.1459999999999999E+00
Au    6.2190000000000012E+00    6.2190000000000012E+00    4.1459999999999999E+00
Au    0.0000000000000000E+00    2.0730000000000000E+00    6.2190000000000012E+00
Au    0.0000000000000000E+00    6.2190000000000012E+00    6.2190000000000012E+00
Au    2.0730000000000000E+00    0.0000000000000000E+00    6.2190000000000012E+00
Au    2.0730000000000000E+00    4.1459999999999999E+00    6.2190000000000012E+00
Au    4.1459999999999999E+00    2.0730000000000000E+00    6.2190000000000012E+00
Au    4.1459999999999999E+00    6.2190000000000012E+00    6.2190000000000012E+00
Au    6.2190000000000012E+00    0.0000000000000000E+00    6.2190000000000012E+00
Au    6.2190000000000012E+00    4.1459999999999999E+00    6.2190000000000012E+00
Au    0.0000000000000000E+00    0.0000000000000000E+00    8.2919999999999998E+00
Au    0.0000000000000000E+00    4.1459999999999999E+00    8.2919999999999998E+00
Au    2.0730000000000000E+00    2.0730000000000000E+00    8.2919999999999998E+00
Au    2.0730000000000000E+00    6.2190000000000012E+00    8.2919999999999998E+00
Au    4.1459999999999999E+00    0.0000000000000000E+00    8.2919999999999998E+00
Au    4.1459999999999999E+00    4.1459999999999999E+00    8.2919999999999998E+00
Au    6.2190000000000012E+00    2.0730000000000000E+00    8.2919999999999998E+00
Au    6.2190000000000012E+00    6.2190000000000012E+00    8.2919999999999998E+00
Au    4.1605062311115569E-05    2.0730260468251109E+00    1.0378157535018998E+01
Au   -1.9463266062359737E-06    6.2189531077298650E+00    1.0357455344967452E+01
Au    2.0744195990083076E+00    3.4567621924520534E-03    1.0358035175835678E+01
Au    2.0744405767407286E+00    4.1426511836840865E+00    1.0357934291668716E+01
Au    4.1460249902997424E+00    2.0728793928342930E+00    1.0332289651954408E+01
Au    4.1459844067984850E+00    6.2185666730885583E+00    1.0374644654970471E+01
Au    6.2175684150980022E+00    3.4645113610503389E-03    1.0358062988173192E+01
Au    6.2175484383001818E+00    4.1426439238710113E+00    1.0357960728981555E+01
Au    9.8376463855129713E-06   -1.5340086144864852E-02    1.2444313128330970E+01
Au    1.0945522987512532E-05    4.1614836288699575E+00    1.2444416489577776E+01
Au    1.9976553922322455E+00    2.0729730343883142E+00    1.2462269412146346E+01
Au    2.0561950252499868E+00    6.2190026633631348E+00    1.2444015784977552E+01
Au    4.1459952274759919E+00   -8.1009024743483773E-02    1.2449951000275016E+01
Au    4.1459965950107351E+00    4.2259730333178513E+00    1.2451132629884485E+01
Au    6.2945100584877878E+00    2.0729743412999002E+00    1.2462152380813540E+01
Au    6.2357873322152981E+00    6.2190037742236148E+00    1.2444041948228953E+01
S    4.1458157387438757E+00    2.0781413439938503E+00    1.4101897971964592E+01
C    4.1438832215730104E+00    2.0850898253876484E+00    1.5875068725706985E+01
H    1.9908337969362526E+00    2.0953029286391849E+00    1.6012386810586115E+01
H    6.2942672920210621E+00    2.0951837088029981E+00    1.6023313811822252E+01
C    2.9281349220783741E+00    2.0801531962146655E+00    1.6568647264752343E+01
C    5.3589139252690687E+00    2.0802832469453869E+00    1.6569590200279510E+01
C    2.9225332977492084E+00    2.0639183426934800E+00    1.7955032661079695E+01
C    5.3536178062221103E+00    2.0640218348968968E+00    1.7956054442682156E+01
H    1.9875358604743814E+00    2.0488579525913018E+00    1.8500888815225387E+01
H    6.2907100080115512E+00    2.0487103393732493E+00    1.8511941225302142E+01
C    4.1376865445191013E+00    2.0594680277078870E+00    1.8648411988811620E+01
S    4.1411017608380529E+00    2.0674242325429679E+00    2.0421116047289217E+01
Au   -2.8237045498389230E-04   -1.3754234867109812E-02    2.2079162665644635E+01
Au   -2.8394219407293640E-04    4.1595813731776001E+00    2.2079270754266645E+01
Au    1.9942268087683985E+00    2.0731024851825177E+00    2.2059726061455997E+01
Au    2.0578264055519599E+00    6.2189631250602533E+00    2.2079112337235181E+01
Au    4.1457465483386811E+00   -8.3018489120436592E-02    2.2070871817129355E+01
Au    4.1457476231039969E+00    4.2300884061197248E+00    2.2072175144554926E+01
Au    6.2984676656316072E+00    2.0731041046414824E+00    2.2060920305116074E+01
Au    6.2190000000000012E+00    6.2190000000000012E+00    2.2085999999999999E+01
Au    0.0000000000000000E+00    2.0730000000000000E+00    2.4159000000000002E+01
Au    0.0000000000000000E+00    6.2190000000000012E+00    2.4159000000000002E+01
Au    2.0730000000000000E+00    0.0000000000000000E+00    2.4159000000000002E+01
Au    2.0730000000000000E+00    4.1459999999999999E+00    2.4159000000000002E+01
Au    4.1459999999999999E+00    2.0730000000000000E+00    2.4159000000000002E+01
Au    4.1459999999999999E+00    6.2190000000000012E+00    2.4159000000000002E+01
Au    6.2190000000000012E+00    0.0000000000000000E+00    2.4159000000000002E+01
Au    6.2190000000000012E+00    4.1459999999999999E+00    2.4159000000000002E+01
Au    0.0000000000000000E+00    0.0000000000000000E+00    2.6231999999999999E+01
Au    0.0000000000000000E+00    4.1459999999999999E+00    2.6231999999999999E+01
Au    2.0730000000000000E+00    2.0730000000000000E+00    2.6231999999999999E+01
Au    2.0730000000000000E+00    6.2190000000000012E+00    2.6231999999999999E+01
Au    4.1459999999999999E+00    0.0000000000000000E+00    2.6231999999999999E+01
Au    4.1459999999999999E+00    4.1459999999999999E+00    2.6231999999999999E+01
Au    6.2190000000000012E+00    2.0730000000000000E+00    2.6231999999999999E+01
Au    6.2190000000000012E+00    6.2190000000000012E+00    2.6231999999999999E+01
Au    0.0000000000000000E+00    2.0730000000000000E+00    2.8305000000000003E+01
Au    0.0000000000000000E+00    6.2190000000000012E+00    2.8305000000000003E+01
Au    2.0730000000000000E+00    0.0000000000000000E+00    2.8305000000000003E+01
Au    2.0730000000000000E+00    4.1459999999999999E+00    2.8305000000000003E+01
Au    4.1459999999999999E+00    2.0730000000000000E+00    2.8305000000000003E+01
Au    4.1459999999999999E+00    6.2190000000000012E+00    2.8305000000000003E+01
Au    6.2190000000000012E+00    0.0000000000000000E+00    2.8305000000000003E+01
Au    6.2190000000000012E+00    4.1459999999999999E+00    2.8305000000000003E+01
Au    0.0000000000000000E+00    0.0000000000000000E+00    3.0378000000000000E+01
Au    0.0000000000000000E+00    4.1459999999999999E+00    3.0378000000000000E+01
Au    2.0730000000000000E+00    2.0730000000000000E+00    3.0378000000000000E+01
Au    2.0730000000000000E+00    6.2190000000000012E+00    3.0378000000000000E+01
Au    4.1459999999999999E+00    0.0000000000000000E+00    3.0378000000000000E+01
Au    4.1459999999999999E+00    4.1459999999999999E+00    3.0378000000000000E+01
Au    6.2190000000000012E+00    2.0730000000000000E+00    3.0378000000000000E+01
Au    6.2190000000000012E+00    6.2190000000000012E+00    3.0378000000000000E+01
Au    0.0000000000000000E+00    2.0730000000000000E+00    3.2451000000000001E+01
Au    0.0000000000000000E+00    6.2190000000000012E+00    3.2451000000000001E+01
Au    2.0730000000000000E+00    0.0000000000000000E+00    3.2451000000000001E+01
Au    2.0730000000000000E+00    4.1459999999999999E+00    3.2451000000000001E+01
Au    4.1459999999999999E+00    2.0730000000000000E+00    3.2451000000000001E+01
Au    4.1459999999999999E+00    6.2190000000000012E+00    3.2451000000000001E+01
Au    6.2190000000000012E+00    0.0000000000000000E+00    3.2451000000000001E+01
Au    6.2190000000000012E+00    4.1459999999999999E+00    3.2451000000000001E+01
     &END COORD
     &KIND Au
       BASIS_SET SZV-MOLOPT-SR-GTH
       POTENTIAL GTH-PADE-q11
       &POTENTIAL
 1 0 10
  0.5900000000000000E+00 1  0.1160442790000000E+02
 3
  0.5211797500000001E+00 2  0.2538613590000000E+01 -0.1046136640000000E+01
  0.2701113200000000E+01
  0.6306130599999999E+00 2  0.3948527000000000E+00 -0.8695921300000000E+00
  0.2057830560000000E+01
  0.4407064300000000E+00 2 -0.4719069660000000E+01  0.7277708100000000E+00
 -0.1650429070000000E+01
         # Potential name:  GTH-PADE-Q11  for symbol:  AU
         # Potential read from the potential filename: GTH_POTENTIALS
       &END POTENTIAL
     &END KIND
     &KIND C
       BASIS_SET DZVP-MOLOPT-SR-GTH
       ELEMENT C
       POTENTIAL GTH-PADE-q4
       &POTENTIAL
 2 2
  0.3488304500000000E+00 2 -0.8513771100000000E+01  0.1228432030000000E+01
 2
  0.3045532100000000E+00 1  0.9522841789999999E+01
  0.2326773000000000E+00 0
         # Potential name:  GTH-PADE-Q4  for symbol:  C
         # Potential read from the potential filename: GTH_POTENTIALS
       &END POTENTIAL
     &END KIND
     &KIND S
       BASIS_SET DZVP-MOLOPT-SR-GTH
       ELEMENT S
       POTENTIAL GTH-PADE-q6
       &POTENTIAL
 2 4
  0.4200000000000000E+00 1 -0.6554491840000000E+01
 2
  0.3617566500000000E+00 2  0.7905302500000000E+01 -0.1731881300000000E+01
  0.4471698300000000E+01
  0.4052850200000000E+00 1  0.3866579000000000E+01
         # Potential name:  GTH-PADE-Q6  for symbol:  S
         # Potential read from the potential filename: GTH_POTENTIALS
       &END POTENTIAL
     &END KIND
     &KIND H
       BASIS_SET DZVP-MOLOPT-SR-GTH
       ELEMENT H
       POTENTIAL GTH-PADE-q1
       &POTENTIAL
 1
  0.2000000000000000E+00 2 -0.4180236800000000E+01  0.7250748200000000E+00
 0
         # Potential name:  GTH-PADE-Q1  for symbol:  H
         # Potential read from the potential filename: GTH_POTENTIALS
       &END POTENTIAL
     &END KIND
     &TOPOLOGY
       COORD_FILE_NAME em.xyz
       COORD_FILE_FORMAT  XYZ
       NUMBER_OF_ATOMS  116
       MULTIPLE_UNIT_CELL  1 1 1
     &END TOPOLOGY
   &END SUBSYS
 &END FORCE_EVAL
