
#FDF: Opened INPUT_TMP.185021230  for input. Unit: 15

fdf-debug              0     # Default value
SystemName     mol                                                                                                                                 
SystemLabel     mol                                                                                                                                 
